ITEM: TIMESTEP
100000
ITEM: NUMBER OF ATOMS
1000
ITEM: BOX BOUNDS pp pp pp
0.0000000000000000e+00 2.6762876615300002e+01
0.0000000000000000e+00 2.6762876615300002e+01
0.0000000000000000e+00 2.6762876615300002e+01
ITEM: ATOMS id type x y z vx vy vz
457 1 0.312263 7.47789 1.90761 0.00287825 0.00183612 -0.00088397
737 2 1.00064 2.4883 7.60809 -0.000493964 0.00224715 -0.000950767
914 1 5.2215 7.60509 2.61125 -0.00561618 -0.000819853 -0.00161835
297 2 4.73394 6.97226 5.44216 -0.000983125 0.000833866 0.00137393
145 2 3.47928 2.36559 7.66416 -0.00177407 -0.0011086 -0.00269561
573 2 3.22736 0.558739 6.26315 0.0022127 0.00232526 0.000536397
470 2 3.81845 8.11436 7.52007 -0.00105656 -0.000575194 -0.00206579
635 2 2.70559 3.70307 5.91547 -0.000123336 -0.000917453 -0.0017107
749 2 25.8687 6.45861 6.75162 -0.00332575 -3.06238e-05 0.00138952
579 2 4.3884 0.480323 3.61516 0.00177708 0.00140575 -0.0028511
104 2 5.0671 4.74161 6.69365 0.00198522 0.00217263 0.00238276
291 2 3.11833 6.0735 6.98715 -0.00196207 -0.0008435 0.00254282
729 2 7.18136 1.91345 5.2729 0.00120116 0.00409203 -0.000696776
487 2 0.853789 1.54691 2.68661 0.000210332 -4.60596e-05 -0.00106117
188 2 4.84505 2.53617 5.53913 0.00223324 0.000548597 0.00225104
144 2 7.49819 4.28193 6.27099 -0.00182477 -2.35484e-05 -0.00243646
740 2 5.22503 6.71561 8.49039 -0.00102066 -0.00433473 0.000191174
501 2 5.00831 2.44188 2.23593 -5.42786e-05 -0.000830664 -0.000463434
148 2 5.95789 2.52818 7.56115 1.85143e-06 0.0013593 0.00111062
324 2 7.69068 1.1513 8.26195 -0.00176179 0.00347893 0.000842469
966 2 1.23928 4.3619 3.18338 -0.000865529 0.00100841 0.00382071
221 2 6.8468 5.37529 1.06021 -0.00270608 0.00249812 -0.0016753
279 2 3.03393 0.786992 1.71243 -0.00257283 -5.35836e-05 0.00148588
286 2 8.98816 2.41123 6.81833 -0.00210309 -0.00112327 0.00157663
395 2 25.6087 4.404 4.76937 0.00327412 -0.00279966 0.000551893
476 2 8.42262 3.22499 0.865882 -0.000630068 0.00149163 0.00156017
895 2 0.88286 5.10023 5.79142 0.000756576 -0.00161762 -0.000599328
931 2 0.61331 0.188885 6.09098 -0.00179784 0.000510229 -0.00111726
216 1 2.06226 6.27305 26.3632 -0.00143387 0.000391545 0.000851863
588 2 4.56546 0.859345 8.92033 0.00186616 -0.00193865 -0.00124754
591 2 8.10531 3.38898 9.31303 -0.0001138 0.00205844 0.00100877
249 2 6.57792 1.72351 10.4468 0.0024398 -0.000347869 0.00273005
202 2 7.3536 3.09821 2.89217 -0.000401868 -0.00215224 -0.00153429
615 1 8.21146 8.23537 1.2395 -9.84307e-05 0.000836155 -0.00258256
336 2 6.90623 6.56106 6.5043 -0.000678033 -0.00335837 -0.000755063
724 2 7.42362 1.04818 1.25426 0.0010961 0.0016407 0.000233249
975 2 0.92118 5.0039 8.49247 0.00271658 0.00302 -0.00194756
157 2 5.30718 4.46699 3.99137 0.0027342 0.00333933 -0.00510094
826 2 0.832089 2.56868 5.017 0.00102507 0.000692741 0.000970972
592 2 7.55137 5.49931 4.28601 0.000516374 0.00112118 -0.00128996
754 2 2.71657 3.38017 1.69476 0.0015478 0.00162963 0.00315179
602 2 6.0061 4.33033 9.03438 0.000994169 0.00491609 0.00478421
994 2 3.14202 5.40958 4.15352 0.00144359 -0.00213985 0.00568758
58 2 3.11472 2.54081 3.63862 -0.00121462 0.00240846 0.00209891
183 2 4.38439 4.71399 1.19645 0.001046 -0.00288561 0.0013041
824 2 17.8288 3.89259 3.36262 0.00228955 -5.2114e-05 0.00139043
161 2 9.08798 7.53546 6.92477 -0.00242639 -0.000739615 0.000516965
459 2 9.68103 4.85683 9.87622 -0.00249512 -0.000337449 -0.00154213
471 2 10.4934 6.90782 8.53524 -0.00131019 0.00157205 -0.00209351
27 1 16.4516 6.12078 1.13185 -0.00236095 0.000480931 0.000907909
224 2 13.8013 5.96246 8.35639 0.00414581 0.00251366 -0.00240517
842 2 16.5363 7.62944 4.6821 -0.0014176 -0.00264582 -0.00217129
720 2 10.2669 2.99052 2.53776 -0.00188366 -0.000133327 0.00397921
660 2 11.8704 9.15122 7.76206 -0.0016009 -0.000786304 0.000164942
921 2 11.6568 6.9877 6.47547 -0.000356893 -0.000823662 0.00178385
428 2 10.1095 1.35597 26.4698 0.00116931 -0.00302846 -0.00255618
686 2 15.714 5.75274 6.53806 0.00252846 0.000869108 -0.00332984
662 1 11.5484 7.59331 2.22398 0.00205781 -0.00152541 -0.00265018
857 2 15.1227 1.43312 3.47961 -0.00101435 -0.00389948 0.000364631
843 2 11.9363 4.8129 4.46482 0.000140366 0.00355259 0.00435897
407 2 14.1527 3.6351 4.83735 0.0018005 0.000172984 -0.000368658
886 2 16.3497 3.17495 5.75184 0.000881574 -0.00146819 -0.00337882
593 2 17.3838 1.31103 4.07049 -7.28386e-05 0.00190839 0.00101634
54 2 18.2081 1.623 6.40193 0.00461069 -0.00341701 -0.00242732
473 2 15.5027 3.26353 1.99373 0.000919746 0.00257482 0.00288952
906 2 9.2242 1.4127 4.29285 -6.61931e-05 0.00307437 0.00153746
230 2 10.9574 0.598937 5.96558 -0.00218443 -0.00346756 -0.000656818
163 2 15.0216 7.82438 9.4702 -0.00602848 0.00121892 -0.000136631
765 2 11.8991 4.47791 1.29695 -0.00413295 -0.00110998 -0.00065144
880 2 13.2088 4.8732 6.50646 -0.000838858 -0.00102268 -0.00178775
565 2 14.1909 7.99135 6.93011 -0.00298814 -0.00248647 -0.00112548
637 2 11.4253 2.97753 6.38544 0.000687003 0.00162435 -0.000866044
423 2 9.50894 5.30391 2.90587 0.00150077 -0.000396529 0.00202797
450 2 12.9248 2.63573 2.81025 -0.000180852 -0.00388655 -0.00241733
256 2 11.8394 26.7299 3.85458 0.00091956 -0.00538721 0.00481987
376 2 13.7896 5.0072 2.65627 -0.000794761 -0.00163066 -0.000466506
406 2 11.7701 4.80384 8.12441 0.00107578 0.00314769 0.0039497
494 2 9.61295 4.65988 7.33514 -0.005563 0.00207256 0.000549612
448 2 14.9646 1.06026 9.0478 -0.00181628 0.0021871 0.00176979
689 2 13.4218 2.79392 7.63041 0.000691953 -0.00132079 0.0012718
209 2 13.9112 6.74542 4.60291 0.000663813 -0.00436178 -0.000283866
432 2 12.7944 0.513455 7.77121 0.000857763 -0.00179493 6.41622e-05
94 2 15.2847 1.47836 6.91549 0.00105598 0.00133999 0.00177341
337 2 17.6266 1.68028 8.59961 -0.00369408 0.00033081 0.00238037
793 2 15.9434 5.25149 4.08398 -0.00124448 -0.00138792 -0.0011735
712 2 12.3165 1.24237 0.89354 0.00510985 -0.00150458 -0.00113261
341 2 10.4955 2.65849 8.53827 -9.86454e-05 0.00504597 0.000562232
566 2 12.592 3.6717 10.2039 -0.00212523 0.000568829 -0.00427273
1 2 9.81642 6.45155 4.9453 -0.0021708 0.00469241 -0.00301916
881 2 9.73951 3.81341 4.75612 -0.00179296 0.00234432 6.47988e-05
666 1 19.8015 26.5769 2.57047 0.00045452 0.000215933 0.00264354
338 1 24.9355 1.66475 1.12952 0.00446055 -2.46857e-05 -0.00155597
896 1 23.6887 4.5608 1.78342 0.00697797 -0.000360065 0.000657093
562 1 22.3592 7.67338 1.80949 -0.00212896 -0.00162945 0.00417805
314 2 19.5996 2.30154 4.1856 0.00213735 -0.00305907 -0.000614506
201 2 20.5592 3.34305 7.80877 -0.00197447 -0.00505298 -0.00414619
258 2 22.1921 7.53148 7.22703 0.00112353 -0.000733721 -9.81149e-05
702 1 19.6888 25.7971 5.29345 -0.000989518 -0.000604101 0.00401071
219 1 18.3743 8.2057 1.60725 -0.000214425 -0.00270019 -0.00169596
674 2 18.5182 6.31218 4.17809 0.00264454 -0.00415054 -3.7275e-05
65 2 19.6201 4.22995 5.49578 0.000198458 -0.00225769 0.000660359
497 2 18.3955 6.5067 6.62685 -0.00346424 0.000851549 0.0015006
837 1 22.6284 0.593697 2.36224 -0.00219499 -0.00120961 0.00130414
261 2 23.8509 7.88854 5.55809 0.000560493 -0.00566248 0.00466208
132 2 20.6627 7.38262 4.96611 0.00102609 -0.00193411 -0.000719418
3 2 23.2783 2.82041 4.66605 0.00272491 0.00255095 -0.00318652
503 2 25.8286 4.25597 7.27661 0.00110103 -0.00310256 0.00241582
700 2 20.2613 5.98556 8.54124 1.57069e-05 0.000978932 0.00170878
354 2 22.8566 8.04728 9.24993 0.000726258 0.00126086 0.00271615
568 2 22.0791 9.48145 5.29581 0.00240409 0.0043105 0.00153657
989 2 19.7412 8.41103 7.7918 -0.00406126 -0.00309244 -0.000959991
212 2 25.0908 8.55085 7.64077 0.0010386 0.00205874 0.00106563
106 2 26.3652 8.10244 4.9071 0.00188408 0.00178362 0.000746521
861 2 22.881 5.84658 4.75404 -0.00558642 0.00339897 0.000338994
35 2 23.7206 5.68254 6.99953 -1.83983e-05 0.00180829 0.000820594
741 2 23.306 0.878258 6.76197 -0.00369812 0.000207318 0.000836718
138 2 21.2216 2.06335 6.00227 0.000422805 0.00203142 0.00125147
564 2 20.0058 1.17267 8.08151 -0.00166653 -0.000900325 0.00151604
19 1 21.9083 2.86489 0.742781 -0.00252699 0.0027142 0.0024999
159 2 23.3685 3.30798 7.36877 0.0021586 0.000961674 -0.00330268
56 2 25.6434 1.93103 6.22241 0.00166759 -0.00113308 0.000508211
361 2 21.2553 3.93775 3.75413 0.00151376 0.00444012 -0.00191746
244 1 26.4918 4.67622 0.645695 0.00315909 -0.000727204 -0.00345046
285 2 18.2255 3.88627 7.81952 0.00272565 0.00125445 0.000847312
107 2 22.5687 1.4213 8.95679 0.000502554 0.00073666 -0.00162279
523 2 25.3661 1.87432 3.89119 -0.00166634 -0.000929198 0.00293961
270 2 24.9596 6.56399 3.73896 0.000755061 0.00103905 -0.0011804
665 2 25.2842 26.7084 7.98739 0.00219819 -0.00213021 0.00547722
853 2 26.4153 26.3898 3.4763 0.00198063 -0.00376722 -0.00126043
247 2 21.2347 5.36816 6.54091 -0.000311413 -0.00416825 0.00312819
85 1 19.9088 5.31043 1.47995 0.00316781 -0.0010614 -0.0029697
97 1 5.91929 12.8064 26.4873 0.00193796 0.000378188 -0.00192366
962 1 2.94374 8.90856 1.63757 0.00431713 0.00113746 -0.00347416
764 1 8.0164 11.4159 2.98512 0.00325185 -0.00257304 -0.00337171
680 1 5.40575 13.0029 2.72072 -0.00294416 0.00313485 0.000555197
255 1 7.50667 15.4153 6.97353 -0.00316934 -0.00049051 -0.000676966
281 2 2.19586 16.9015 4.94394 -0.00124328 -0.0042493 -0.00210567
603 1 2.38014 14.4706 3.13303 0.00195427 -0.00384676 0.00469355
558 2 1.72275 13.956 7.36716 -0.00215302 -0.0031621 -2.82043e-05
850 1 4.77272 16.1866 2.11542 2.27417e-05 -0.00291953 -3.23936e-05
856 1 4.86088 10.2102 4.23214 0.00349978 0.00121167 -0.00397787
475 1 1.84685 16.5469 0.401585 0.000257837 -0.00143611 -0.000723447
110 1 6.77677 15.7412 4.09388 0.000658073 0.00151776 0.0011583
859 1 2.86926 11.5339 2.62248 0.00434818 0.000104315 -0.00387684
42 1 6.57603 9.5208 6.79226 -0.00223145 0.00134102 -0.00339494
210 1 0.597339 10.4664 1.27039 -0.00510734 0.00261193 0.00410756
332 2 2.36491 9.64856 6.37182 0.00428153 0.000323252 0.00117239
37 1 4.34311 14.0091 5.14829 0.000162403 0.000330264 -0.0036852
690 1 4.34942 11.5682 7.24979 -0.00241734 -0.00294411 -0.000266743
472 1 3.79473 14.2287 0.353881 -0.00333954 0.000224961 0.000707178
295 2 26.5476 15.0632 4.95443 -1.09004e-05 -0.000342509 0.000614887
367 1 5.4415 10.4976 1.48167 -0.000547667 0.000750096 0.000336272
234 1 7.24387 14.6454 1.09901 -0.00240107 -0.0016684 0.00199468
701 2 2.17396 7.72608 4.80093 -0.00135329 -0.00144096 -0.00370088
567 2 2.57939 16.0826 7.06109 -0.000497471 -0.00358346 0.000693896
537 1 7.41136 12.1688 8.30003 0.00172242 -0.000349397 0.000764334
28 1 6.67658 12.2488 5.37006 -0.00368246 -0.00233717 0.000551525
190 2 0.282306 17.3161 6.54641 -0.00229943 -0.00273201 -0.000166575
235 1 7.7097 8.52701 3.95614 -0.00114361 0.00153955 0.00277935
640 2 1.682 12.2903 5.60958 -0.000348918 -0.003341 0.00184505
807 1 9.27101 10.8367 6.55392 0.00050561 -0.00390072 0.00244262
75 2 1.3156 7.56073 7.07464 -0.000737875 -0.00165412 -0.00277227
187 2 1.15136 11.8853 8.33336 -0.00106568 -0.000697723 0.000530151
127 2 0.950252 10.4268 4.45593 -0.00016785 -0.00348753 -0.0022406
355 2 18.5311 9.06095 5.2763 0.000935359 0.00269015 -4.98793e-05
293 1 8.80487 17.8735 3.44276 -0.000756219 -0.00225212 0.0019986
854 1 16.0388 14.3145 0.752966 0.000883761 0.000588515 -0.00519398
574 1 9.70932 13.6285 6.25853 0.00489475 -0.000839209 0.000450437
551 2 15.703 10.3863 8.40478 -0.00191202 -0.0034795 8.33272e-05
14 1 10.8562 12.1483 8.72687 0.00270986 0.00245477 -0.0024627
829 1 13.0411 9.53301 4.13518 0.00085865 -0.0024153 -0.00284516
938 1 12.8097 16.3966 4.96451 0.00294851 0.000299979 -0.00268562
803 1 11.7282 10.4933 1.64219 0.00367808 -0.0011046 0.00266652
947 1 12.8373 16.7342 0.304395 0.00123564 -0.000373458 -0.00166741
312 1 12.618 11.6914 6.62091 0.00581093 0.00322682 0.000149675
985 1 11.0923 12.41 3.61531 0.00281803 0.0018977 0.000725285
840 1 9.66541 16.3218 0.859104 -0.00184745 -0.00291655 0.00421116
353 1 17.4794 15.3534 8.16851 0.000452642 0.00154575 0.00050307
656 1 13.6976 13.7225 4.52852 0.00237238 -0.00185926 0.00149681
357 1 12.1547 14.5335 7.15971 -0.00218557 0.00445222 0.00226061
553 1 15.5761 13.5138 7.10024 -0.000326448 -0.000149697 0.000619958
276 1 9.61153 16.2717 5.64364 0.00210717 0.000186282 0.00235867
805 1 14.4517 11.7538 2.28958 0.000142476 -0.00201997 -0.000390951
923 1 16.299 13.3392 3.85213 -0.000160274 -0.000573901 -2.7383e-05
594 1 13.122 14.0039 1.10161 0.00167387 0.000823782 0.00318689
156 1 16.2273 11.519 0.158424 -0.00205401 0.00169807 6.54682e-05
60 1 11.307 15.4358 2.94009 0.00157557 -0.000816378 0.00412901
978 1 15.0326 8.40384 2.13851 0.00230402 -0.00111974 0.00174848
383 1 14.3746 16.1956 2.75524 0.00239145 -0.00108542 -0.00035037
738 1 8.88893 14.0624 3.44476 -0.00314425 -0.00180324 -0.00153723
84 1 15.2817 10.8038 5.34915 1.62159e-05 0.00126105 -0.000248527
992 1 16.4293 16.294 5.38137 0.000389492 -0.00255316 -0.000581117
452 1 10.3134 13.3071 0.923576 -0.00217218 -0.0013831 -0.00146953
194 1 17.0717 10.5529 2.94174 -0.000710421 -0.00139919 -0.000442024
713 1 17.299 16.0765 2.41782 -0.00118476 0.00523277 0.0015834
21 2 16.7122 8.25473 7.25957 0.000126791 0.00232075 0.00194719
147 1 10.2427 9.50235 4.34386 -0.000265418 -0.0034107 -0.00473673
714 2 0.26955 10.1223 7.2464 -0.000768883 0.00113014 0.00247163
619 1 25.2119 12.3044 0.607315 -0.00550773 -0.00347903 0.00159268
384 1 18.5873 13.2162 1.87401 -0.00262488 -0.000824649 -0.00133179
493 1 18.3527 13.389 25.3714 -0.00188952 0.0010529 0.000620844
916 2 22.286 12.8376 9.02348 0.00241606 -0.000299848 0.0042761
429 2 22.9871 10.5831 7.54889 0.00140511 0.00321782 0.000209248
417 1 21.01 13.3264 0.429961 -0.00097035 0.00170328 -0.00204003
246 1 18.8778 10.4918 0.0882561 -0.00336004 0.000999827 -0.00107263
692 2 24.2208 14.0414 4.82269 -0.00301039 0.00102417 -0.00288594
576 1 25.8433 15.3252 1.23948 0.00194941 0.00351524 -0.00280286
911 1 18.4733 12.1154 5.04766 0.00221143 -0.00221084 -0.00274178
890 1 21.8989 18.2293 9.04535 -0.00621047 0.000449779 -0.000412063
313 2 25.0777 16.3518 8.80888 0.00061546 0.00182469 -0.00121765
719 1 24.9029 9.56632 2.36068 0.00153668 0.00284574 0.00139107
158 2 25.9672 14.6379 7.31256 -0.00227993 0.000772859 0.000336245
836 2 21.0098 13.2273 6.60384 -0.000957956 0.00245368 -0.000647686
474 2 17.9151 10.4016 7.72085 -0.00194076 -0.000687504 -0.00311214
213 2 19.1176 12.3506 8.23357 -0.000765864 -0.00309659 6.20996e-05
245 1 20.7487 15.974 1.96396 -5.49924e-05 0.00267306 0.00163275
810 1 23.1123 14.3749 2.08963 -0.00064294 0.00415731 -0.00290031
123 1 23.6037 17.037 1.0853 0.0022919 -0.00240654 -0.000385417
108 2 26.5893 12.9802 3.56348 -0.00025542 -0.00210546 -0.00117517
929 1 21.7005 16.3348 4.72138 0.000948903 0.00275614 -3.24262e-06
449 1 19.1725 15.0421 4.98266 -0.000368243 -0.000594562 0.000210139
788 2 23.4501 12.861 6.88488 -0.0020521 -0.000821725 0.00198312
217 1 19.9336 16.9997 7.25206 0.00135841 -0.000527078 -0.00205557
477 2 20.1697 10.3177 6.40726 -0.00165372 0.000641916 -0.000828027
951 1 22.7459 11.0808 1.58998 -0.00180429 -0.0020166 -0.0047811
139 1 20.9717 12.9764 3.46409 -0.00648052 0.00221914 -0.00134575
485 2 23.1137 15.4494 7.75502 0.000274395 0.00062769 0.00276672
466 2 24.8515 10.0739 5.60727 -0.00500993 -0.00209645 -0.00276944
233 2 24.5502 17.454 6.49792 -0.00136032 0.00122996 0.002277
236 2 24.4662 16.5101 4.11721 -0.000774951 -0.00220307 0.00495607
15 2 25.5558 12.2993 5.65443 0.00123786 0.00342603 -0.00276671
945 2 23.2501 11.5469 4.62043 -0.000264717 1.75102e-06 -0.00381322
92 1 20.3849 10.2272 2.79745 0.00261299 -0.00254725 -0.000121183
722 2 8.50961 25.5821 2.59539 0.00161588 -0.00151984 0.00136525
215 2 4.59908 17.5858 5.39742 0.000112671 -0.00349205 -0.0016455
776 2 6.08395 19.1132 3.6078 0.00116399 0.00265181 -0.0031612
453 2 0.0861418 17.1432 3.65077 -0.00102525 0.000560026 -0.000374031
791 2 5.63879 21.371 3.78368 0.00205261 0.00123341 0.000582189
76 2 26.6377 22.8806 8.0505 0.00227951 0.0047972 0.000549285
718 2 3.91594 20.8291 2.33655 -0.00243846 0.000295243 -0.00324722
342 2 8.32228 20.6573 4.86979 -0.00114044 0.00124407 0.00204656
657 2 5.83836 26.1559 7.13558 -0.00411018 0.00406529 0.000420739
545 2 7.90735 22.8438 3.23481 -0.00144799 -0.0020852 -0.001287
514 2 1.84282 19.5629 1.70416 0.000164307 0.00431136 0.000179006
162 2 2.19711 22.6816 6.96721 -0.00278516 0.00216781 -0.00118004
124 2 7.2015 20.7093 1.89102 -0.00049219 0.00150207 0.000317399
825 2 7.32132 24.124 1.21724 0.000266569 0.00312136 0.0037359
371 2 0.959792 24.0835 3.43692 -0.00155501 -0.00229185 0.00436438
610 2 4.43517 24.8306 8.49996 0.000434366 0.000865367 0.00228879
605 2 2.79708 23.8223 4.69505 -0.00184592 -0.00496738 0.00166032
638 2 0.400471 24.4254 5.54273 -0.00172144 0.000288328 0.00134471
491 2 0.00546883 20.5362 2.70691 0.00200628 -0.000905322 0.00446611
918 1 7.14828 17.7413 0.881151 0.000791133 -0.00336863 -0.00115038
893 2 6.87273 25.1592 5.28743 -0.00467183 -0.00134808 -0.000498668
943 2 3.75929 20.5763 7.55552 3.04217e-05 -0.000265737 0.000405065
430 2 8.36861 22.3519 0.384243 0.000290736 -0.00237276 -0.000227499
786 2 1.37248 19.1573 4.59007 0.00627956 0.000316924 0.00094292
725 2 4.97351 25.0592 1.12116 -0.000131978 -0.0014554 0.00148712
9 2 3.43946 18.573 3.5599 -0.00413191 0.00074994 -0.00211271
137 2 6.62501 26.7226 3.34761 0.0043328 0.000739064 0.00437604
697 1 7.96619 18.3463 6.68974 -0.000274368 -0.000687587 0.000955001
445 2 8.56979 0.0399736 6.25642 0.00101158 -0.000794488 0.00140737
489 2 8.55296 21.5227 7.15586 -0.000390587 -0.00051664 -0.00341931
111 2 9.68445 24.8227 4.98941 -0.000585529 -0.000515196 -0.0038124
600 2 2.69618 18.702 6.82983 0.00150342 -0.00237674 0.00016214
561 2 3.43877 20.3277 5.13877 0.00323548 -0.000822281 -0.000887238
231 2 0.250187 21.8824 4.94212 0.000987242 0.00145007 -0.00212733
278 2 5.52829 22.2636 1.04394 -0.00173918 0.000405914 0.000121819
879 2 2.2071 23.8221 8.97456 0.00222844 -0.000424784 0.000275361
98 2 2.55818 25.1426 6.67094 0.000577937 0.00102833 -0.00023525
214 2 6.20371 23.0101 7.61888 -0.000528549 -0.00233162 0.00024765
462 2 4.55744 22.8938 6.16369 0.00279815 -0.00256785 -0.000171756
957 2 0.693141 20.7553 6.96312 0.000856639 0.00389859 -0.000599062
852 2 3.68045 23.0963 2.53411 0.00181747 0.00423023 -0.000742222
687 2 2.98011 21.5701 0.341624 0.00102621 0.000255955 -0.00107504
772 2 1.38367 22.5148 1.68137 0.00326007 0.00353572 0.000820783
257 2 2.10089 21.6733 3.7235 -1.35451e-05 0.00171623 -0.00102534
797 2 5.94171 20.6581 5.96446 -0.000948523 -0.0014992 -0.00165314
940 2 2.74704 25.422 2.79173 0.00253618 0.0021818 0.00154975
808 2 7.20858 22.7387 5.59627 0.000476144 0.00312505 0.00110392
777 2 5.59764 24.341 3.39061 -0.00190259 0.00277946 -0.000110417
630 2 4.44652 25.4372 5.32644 0.000272608 0.000960927 -0.0053415
292 2 2.04759 0.0670824 4.31412 -0.000746876 0.00345544 0.00371952
620 2 10.3177 0.390183 8.92019 -0.00114317 0.00186531 -0.000249569
785 1 15.9861 23.1774 6.3468 -0.00280453 9.21238e-05 -0.000587019
961 1 18.1141 21.4347 1.03888 -0.000488895 -0.000911034 -0.00194897
768 1 12.6879 20.8643 7.98975 0.00122542 -0.00439748 0.000542134
207 1 15.1984 20.8206 1.9391 0.00251078 0.00176523 -0.00303668
513 2 13.3218 22.9313 2.00731 0.000515453 -0.00318184 0.001237
760 2 11.485 25.3341 1.33808 -0.00130283 0.00402495 0.00334516
385 2 10.0723 23.4192 2.15777 0.00146643 -0.00236629 -2.67126e-05
315 1 16.0099 23.6095 0.90293 0.000343447 0.00117675 -0.000270914
43 1 13.254 19.4333 0.16074 -0.00154655 0.00410495 -0.00165813
10 2 12.7291 23.6504 26.5308 -0.0015978 0.00212048 -0.00311972
609 1 16.9777 22.0723 3.63198 -0.00105808 -0.00256468 -0.00168447
53 1 11.7946 17.3519 7.78897 0.00443967 0.000978845 -0.00228232
732 1 17.238 18.0868 8.0496 -4.12945e-05 -0.00293243 -0.000330891
965 1 17.1195 26.242 1.3563 0.00128127 -0.00651798 -7.88245e-05
5 2 16.7001 26.6948 5.91605 -0.00110371 0.000808396 -0.000918584
160 2 11.834 21.5206 3.22953 0.00208087 -0.0037046 -0.000265692
206 2 12.7869 25.5394 5.76136 0.00354338 0.00202651 -0.00123711
830 1 14.3439 18.438 6.58893 0.00231732 0.00524689 0.000786639
790 2 11.194 25.36 7.29431 -0.00136186 -0.00110193 0.000684448
26 2 9.67202 20.8697 2.36248 -0.00293865 0.000397334 0.000613335
469 1 9.85494 19.0235 26.4982 0.000184446 -0.00046956 -0.000366257
467 2 13.1272 23.9863 7.95634 -0.00173778 0.00208476 0.001205
290 2 10.376 23.0013 7.61851 -0.000668061 0.000958842 0.000591977
72 1 15.5836 17.6793 0.329787 0.00451919 0.000533452 0.00232171
935 2 13.6558 25.8676 2.19777 0.00505361 -0.00220688 0.000836252
301 1 14.5507 20.9403 5.01169 0.00127706 0.00221046 0.000185234
41 1 13.9436 18.7136 3.55973 0.0015639 0.0027038 0.00166235
532 1 11.1723 19.1267 5.75253 0.00211285 0.00088531 0.000670328
116 1 16.7515 18.7611 3.01044 0.00180935 -0.000891614 0.00351054
483 2 14.8327 26.1395 4.95277 -0.0041406 -6.04254e-05 -0.00113772
973 2 14.2216 23.9308 4.0797 -0.000973226 0.00375879 -0.00159583
924 1 11.4895 18.5458 2.24887 -0.000303081 -0.000815822 0.00405823
141 2 11.203 21.8401 0.805692 -0.000556907 0.00204356 0.00239305
547 1 17.0022 19.6672 5.79396 -0.00348025 -0.000976212 0.00199069
239 2 10.233 0.444213 2.20273 0.00138663 0.00230474 0.000914327
774 2 11.7019 24.3848 3.73855 0.00032134 0.00228353 -0.00415902
676 2 12.1576 23.2689 5.65404 -0.00264597 -0.0017692 -0.0038003
496 2 10.094 22.2038 4.98761 0.00100614 0.000262182 -0.00310332
569 2 14.8161 25.9595 7.19206 -0.000546413 -0.00172785 -0.000928169
96 2 13.218 1.39501 5.33533 -0.00144923 -0.000680076 -0.00236389
360 2 0.680717 25.959 1.42356 0.00169273 0.00104687 0.00472596
525 1 21.6929 24.6529 7.03475 -3.65653e-05 -0.0030811 -0.00135218
248 1 19.6594 22.8728 8.61764 0.000396618 -0.00173258 0.00174158
307 1 23.2883 22.9119 26.6076 -0.000549931 -0.000165807 0.000609824
387 1 19.7136 23.6947 3.22614 -0.00132486 0.00169384 0.000823042
172 1 22.5218 22.6526 2.74131 0.00335149 -0.00114436 -0.00211294
683 1 22.3694 19.6369 5.34151 -0.000811907 -0.000524211 -0.00312571
505 1 20.1749 19.9729 7.26768 0.000965013 0.00175221 0.00282881
928 1 23.7467 20.4793 0.887685 0.00120269 7.60853e-05 0.00199774
400 1 18.811 22.7271 6.03878 0.00123492 -0.0030105 0.00300292
846 1 21.7671 24.9202 1.05639 0.00246768 0.000116521 -0.000319853
652 1 25.9835 18.4455 0.0363332 -0.00237335 -0.000887272 0.00104312
271 1 19.6581 20.5104 3.82086 -0.000113746 0.002156 0.00173857
378 2 25.8957 22.6717 2.34441 0.000749677 -0.00214552 -0.00315462
191 1 18.1318 20.4293 9.63969 2.99304e-05 -0.000841656 -0.00504479
746 1 18.1812 25.5936 8.08643 -0.00541813 -0.00396745 -0.0031246
298 1 22.0236 19.057 2.56039 -0.000914892 0.00043403 0.000532677
617 1 21.6851 22.2922 5.52033 -0.00566005 0.00297549 -0.00486223
607 2 25.1865 21.9065 6.23016 0.000475916 -0.000417676 0.001534
413 2 24.6954 18.6788 3.44942 -0.00262428 -0.00163986 0.000176567
52 1 17.3239 24.9198 3.5508 0.000756682 -0.000310822 -0.000597548
781 1 22.5563 25.1311 4.17648 0.00316423 0.00224736 0.000554783
828 1 20.9619 21.5924 0.441262 0.00284569 -0.00197159 0.000278077
419 1 21.2631 20.8184 10.019 -0.001605 -0.00251716 -0.00293137
866 2 24.8449 21.1776 4.0359 0.00279963 -0.000424507 -0.000541945
691 2 25.0149 24.7953 2.34673 -0.000713806 -0.00230553 -0.000986446
71 1 19.2071 18.324 1.7035 -0.00313491 -0.0021227 -0.00192018
799 2 25.1554 23.8925 4.57464 0.00272116 -0.00171667 -0.00460814
425 2 24.804 24.4128 6.84446 8.58769e-05 0.000509189 -0.00337227
437 1 19.1074 24.7 0.580891 -0.00181814 0.00493345 -0.00302283
715 1 18.9826 17.873 4.43635 -0.0057369 0.00207666 0.00166795
636 2 26.7038 24.065 0.374003 0.00303715 0.00293915 0.00475264
748 2 25.7022 19.2638 5.77152 -0.000342617 0.0042749 0.000679435
362 2 25.1008 26.3619 5.52268 -0.00168831 0.00326353 0.0023651
390 2 8.3136 5.40059 11.7726 0.00175981 -0.00202111 -0.000470807
851 1 6.80411 3.34305 17.5462 -0.00106014 0.000768 -0.00162003
813 1 5.95767 6.15111 16.6924 0.00373659 0.00244895 0.00476687
282 1 4.00695 1.71544 12.2202 0.00227521 0.000748055 0.000729932
534 2 8.00302 6.2778 8.74448 0.00279365 -5.84779e-05 0.0012424
442 2 6.39353 7.01506 10.8816 -0.00310649 0.00203783 0.00272234
780 1 7.85117 9.44036 12.3248 -0.000631712 0.000723978 0.00519011
303 2 0.17129 0.94401 9.21649 0.00303365 -0.000901063 0.00193393
726 2 26.743 3.44129 9.84231 0.00180273 -0.00140304 -0.00380425
831 1 7.20947 8.15032 18.6989 0.00166731 0.00307257 0.00390142
907 1 5.27389 3.9177 14.9264 3.13766e-05 0.0012822 -0.000641693
991 1 6.42255 6.88892 14.0043 0.000399204 0.000373979 0.00179216
95 1 5.11028 9.20525 13.0061 0.000800631 -0.00227191 0.00526112
57 2 2.75534 9.40139 9.04387 -0.000935146 -0.00425326 0.000206985
762 1 0.814094 6.34358 14.2535 -0.00279427 0.000513808 0.0011211
412 2 4.72543 8.58757 10.0183 -0.00245209 0.00138338 0.000718938
223 1 8.17801 4.80137 15.3117 -0.00806265 -0.00291851 0.000743446
848 2 4.21351 6.41387 10.6764 -0.00325298 -0.000447612 -0.00035291
359 1 1.9726 8.11151 12.2824 -0.00253976 0.00376976 -0.00133475
294 1 4.05533 1.72062 17.4496 -0.00391003 -0.00347587 0.00199984
838 1 2.86299 9.24861 15.0693 -0.00267191 0.00130238 -0.00218336
681 2 0.18958 8.73763 9.25793 0.00248468 -0.00117687 -6.63044e-05
867 1 8.11726 2.70366 13.4192 -0.00226184 -0.00115537 -5.485e-06
11 2 2.33578 2.4687 9.84591 0.00439952 0.000633952 0.00382919
152 1 2.36771 4.68185 16.1886 -0.000226484 0.00235014 -0.00291328
229 2 2.12631 7.13269 9.29386 0.00133004 0.00288876 0.000705721
88 1 2.52155 4.35283 12.2069 -0.000530686 -0.000107842 0.000233729
410 1 6.12003 1.32125 15.4877 -0.00188652 0.000263824 0.00070983
122 1 3.72347 6.35603 14.2443 0.000959032 0.00194792 0.0011498
684 1 3.35846 7.21586 17.617 0.00101279 -0.00192716 -0.000147947
855 1 2.6798 2.18691 14.7842 0.000988183 0.00389521 -0.00254794
779 1 5.58011 4.15406 12.0821 0.000754975 0.00191324 0.00270322
254 2 3.31138 4.87197 9.02117 1.192e-05 0.000801964 0.000470493
673 1 9.56289 2.62085 16.3929 -0.000972155 -0.00235203 0.00013908
196 2 8.89509 1.27358 10.6014 -0.000754194 3.04825e-05 -0.00174379
90 2 12.6325 0.936767 13.8451 0.000503834 0.000824343 -0.00211921
199 2 10.8027 8.58421 12.7087 -0.00144967 -0.000123889 -0.00120397
650 2 15.2309 6.56606 13.642 0.00241837 -0.00457453 0.00337713
100 2 16.829 4.54072 10.8134 -0.00231114 -0.00212789 -0.00323681
905 2 14.2965 5.587 10.6206 -0.00497601 -0.00041108 -0.00152784
502 2 12.4913 3.31331 16.9812 -0.000810322 -0.00103663 -0.00208744
584 2 13.699 1.55871 15.7692 -0.00280786 0.000526278 -0.00218907
381 2 11.0818 5.28722 15.7601 -0.00297904 -0.0036405 -0.000504976
488 2 12.5836 7.54098 9.65817 -0.00165173 0.0016962 0.000610042
99 2 15.0575 3.3607 15.1785 -1.79736e-06 0.0010279 -0.00210662
970 2 10.8971 9.5115 10.0243 0.00271516 -0.000127774 0.000695598
323 2 15.5848 11.1637 10.7888 -0.00354519 -0.0010644 -0.00487354
659 2 9.89836 7.88427 15.0395 -0.00061017 -0.00258034 0.00307162
171 2 14.7874 7.65257 17.0254 0.00145838 0.00113552 0.000263254
83 2 17.8835 4.44662 14.6853 -0.000911377 -0.00105414 0.000307089
972 2 16.3986 7.06504 11.1697 -0.00193048 -0.00212635 -0.00133443
528 2 16.8654 3.48191 16.8282 -0.00269785 -0.00274117 -0.0014679
753 2 13.6865 8.00581 11.7796 -0.00101122 0.00232219 0.00249068
949 2 14.7487 4.68288 17.1025 0.00169675 0.0028996 -0.00506466
696 2 17.4452 6.42231 13.0227 -0.00445728 -0.0001883 0.00137324
250 2 12.7095 6.80375 13.5908 0.00194856 0.00129717 0.00105978
888 2 16.1464 1.41718 15.8576 7.63402e-05 -0.00147995 -0.00348389
969 2 16.6685 5.94387 8.67239 -0.000398906 0.00180367 -0.00165629
115 2 14.8293 3.06033 11.2038 -0.000532239 0.00166886 0.00237999
401 2 12.8745 3.46659 14.6149 -0.000850438 -0.00173047 0.00346137
986 2 13.025 4.58563 12.4692 0.00143473 -0.00200158 -0.000170695
195 2 13.6705 6.38433 15.5411 0.00168012 0.00125786 0.00171635
582 2 16.3301 5.84696 15.8477 -0.00155605 -0.00547714 0.00211898
819 2 15.5836 4.22799 13.1078 0.00106568 -0.000588914 0.000318395
668 2 11.6557 6.12994 11.3174 0.00398904 0.00452921 0.000215111
334 2 9.64361 7.17023 10.5981 0.000277596 0.000115967 0.0021865
625 2 9.78218 6.4723 12.8874 0.000807006 0.000852032 0.00177596
146 2 12.6155 2.39503 12.1304 -0.000712377 -0.000924725 -0.00268942
391 2 16.9437 2.26782 13.6335 0.00186756 0.00149699 0.00161283
451 2 16.0814 6.50147 18.5853 -0.00295611 -0.0034795 0.00276073
22 2 11.8369 8.69757 15.9859 0.00174807 0.00162483 -0.0020441
884 2 14.7705 1.56165 13.5071 0.00113847 0.00199523 0.00077762
2 2 10.723 4.22429 13.3758 -0.000902616 -0.00241835 -0.00590642
482 2 15.4324 3.4048 8.60857 -0.00104096 -0.00138312 -0.00262752
964 2 17.9905 7.68401 14.926 0.000946961 0.000408782 -0.000962748
998 2 14.5818 2.28725 17.7965 -0.0025588 0.00125644 0.00127929
728 2 13.2832 26.5593 11.5918 0.000450738 0.00235725 -0.000255775
264 2 10.9221 0.404774 11.8387 0.000792261 -0.00455867 -0.00184523
731 1 11.0828 0.261488 17.1731 0.00349108 -0.00445369 0.00468815
7 1 9.37124 0.336735 14.7315 0.00200442 -0.00159086 -0.00262953
484 2 18.0568 2.16045 10.9318 0.00437811 0.00147023 0.00285109
422 2 10.404 3.19808 11.318 0.002151 0.00283349 -0.00284835
984 2 12.2507 1.50839 9.98277 0.00413227 0.00126913 2.53174e-05
891 2 18.4475 6.95699 17.1308 -0.000596201 0.00129344 0.000711507
441 1 25.5086 1.01987 17.126 0.000287168 0.00288647 -0.0021954
351 2 24.6847 4.61267 10.0207 0.00309321 -0.00262007 -0.000664837
306 2 18.9455 4.78477 16.7415 -0.00106294 -0.00177635 2.09088e-05
348 1 21.7425 0.504201 15.9804 0.00303742 0.00492738 -0.00284418
599 1 23.5113 3.10565 17.0005 0.00170472 -0.00137502 0.000576785
876 2 18.4825 2.26026 15.4321 -0.000247244 -0.000575944 0.00171906
416 2 20.2925 1.97341 10.2776 0.000148164 0.00111246 -0.00201717
606 2 24.0541 4.02002 12.2769 -0.00396646 0.000210633 0.0007708
89 2 22.148 5.11788 15.4153 -0.00107647 -0.00217347 0.0013561
87 2 22.4176 3.60166 10.3355 -0.000334276 2.70543e-05 -0.00241842
649 2 22.372 8.40415 12.5361 8.96862e-05 -0.00335343 -0.00185332
875 1 22.3809 0.288466 11.8465 -0.000281178 0.00179312 -0.000315548
651 1 25.4459 0.493305 11.9717 0.00380089 -0.00293127 0.00259887
922 1 0.0960757 3.12521 13.1856 0.000486321 0.00182151 0.00335773
977 2 25.7632 8.02845 11.3753 -0.000343269 0.0023097 0.00126126
498 2 17.6323 8.38341 9.56287 0.00357409 -0.00151657 -0.000242525
736 2 20.0034 5.58374 14.4319 0.00451937 0.00299611 0.00206005
643 2 21.0182 5.58886 10.9967 0.000207008 -0.00438127 0.00100318
812 2 18.6208 6.18392 10.6159 -0.00225142 -0.000732975 0.0012395
68 1 24.0519 1.53939 14.3873 0.00485779 -0.0025719 0.00367408
682 2 20.5155 8.0847 10.1154 -0.00065264 0.00109283 -0.00218583
577 2 19.7458 7.25952 12.9983 0.00283368 -0.000602687 0.00453886
330 2 20.4468 3.32827 14.9041 0.00178317 0.00293903 0.0031014
317 2 19.2985 1.5081 13.1309 0.000358449 0.00516719 0.000475459
646 2 21.3112 5.3527 17.662 -0.00116598 -0.00149104 -0.0021733
758 2 18.5491 8.86846 11.8934 -0.00311644 -0.0020527 0.00298217
658 2 22.9349 7.59306 15.0376 0.000806504 0.00475696 0.000144547
795 2 25.254 6.88704 9.37171 0.00233027 -0.00287641 0.00139062
305 2 21.8661 3.51412 13.0869 -0.00044029 -0.000889066 0.00203629
783 2 20.6436 7.37431 16.0705 -0.00236833 0.00159723 -0.000222985
364 2 0.165418 5.74504 11.0598 -0.00221575 -9.73211e-05 -0.00254925
329 2 19.3239 3.86355 12.2549 -0.00217009 0.00279422 0.00176543
325 1 26.3403 3.78656 16.1289 0.000409683 -0.000200101 3.34077e-05
434 2 22.1549 5.98979 13.2404 -0.000308521 -0.00066853 -0.00011564
675 1 0.624591 8.01428 16.9291 -0.00262647 -0.0020296 0.000696934
227 2 23.6396 6.69342 11.2322 0.00105073 0.00464599 0.000252359
752 2 24.7739 7.23358 13.3276 0.0030208 0.00404788 7.96764e-05
443 2 24.1274 4.80573 14.4024 0.00274316 0.00214079 0.00228775
527 2 24.9581 6.65355 16.0449 -0.000682651 0.00595394 -0.00354632
318 2 19.5586 4.0593 9.72421 0.0030318 -0.00396909 0.0020555
872 2 24.4937 2.32194 9.57224 0.00244402 -0.000420766 -0.00152227
546 2 22.6125 5.63928 9.07395 -0.000103758 -0.00279253 0.00297265
801 1 7.48834 12.0538 16.6273 -0.00156849 0.00291326 -8.0871e-05
832 1 2.27932 12.4025 14.6127 0.00240695 0.00126405 -0.00204918
205 2 26.7299 11.4031 10.6364 0.00306777 -0.000114155 0.00114204
8 1 2.69477 11.034 11.8956 -0.000361516 0.000954569 -0.00412834
174 1 3.67349 16.0334 10.0661 -0.000356029 -0.00389462 0.00180179
667 1 8.09567 18.8186 17.8349 -0.00174336 -0.00280281 0.000993999
404 1 25.8141 16.3515 12.6082 0.00129031 0.00184326 -0.000479677
614 1 7.94797 9.70847 9.5188 0.00156719 -0.00123845 0.000293273
910 1 7.24205 9.43045 15.3098 0.00205598 -0.00112346 -0.000136945
869 1 7.96229 17.3954 9.4812 0.002127 -0.000502398 0.00392923
967 1 4.94689 11.2449 14.9081 -0.00144734 -0.000821499 -9.10877e-05
587 1 26.7564 11.2143 16.6853 -0.00255795 0.00171552 -0.000928563
709 1 2.63302 17.785 17.1143 0.00368083 0.000423862 0.000582406
238 1 5.03081 14.1908 8.06744 -0.00382183 0.00512668 -0.000972662
20 1 1.72656 14.5904 12.3797 -0.00190422 0.00410332 -0.00151815
817 1 7.15317 12.3804 13.9557 -0.000188519 -0.00267105 -0.00374753
580 1 5.20435 9.58647 17.469 0.000697403 -0.00174897 0.0025268
352 1 7.16035 15.3009 13.7381 -0.00139664 0.00239709 0.00266168
509 1 8.70913 12.0801 11.0558 0.000941351 0.00157254 -0.00154842
136 2 26.3489 13.6225 9.39742 -0.00205101 -0.00350344 -0.00513437
773 1 8.12801 15.6 16.5195 -0.00324198 0.00119944 0.00219387
974 1 0.33905 10.3954 13.4962 -0.00191451 -0.000848946 -0.00479446
226 1 2.6085 15.2152 15.3783 0.000183563 0.00176647 -0.00138973
550 2 5.41573 11.2802 10.5151 -0.000480859 -0.00127777 -0.00253832
633 2 0.809797 15.6264 9.07855 0.0014333 0.00117819 0.000227274
80 1 4.26677 16.2121 13.1922 -0.00157099 0.000996694 0.00623155
114 1 5.57351 17.0284 15.9676 0.00281257 0.00116399 -0.000964424
296 1 5.31444 17.5461 8.4997 -0.00390626 0.00221827 -0.00175629
350 1 4.81315 13.316 12.7003 0.00199802 -0.00189152 0.00138053
431 1 6.40697 14.7281 10.8321 -0.000891196 -0.00122775 -0.00301507
698 1 2.99977 13.404 10.302 7.51794e-05 0.000920388 -0.00213327
405 1 5.40698 14.107 15.7792 -0.000646617 0.00146349 0.00468975
310 1 8.87487 17.5442 14.3362 -0.000720225 -0.00431019 0.00227337
983 1 9.21065 14.9201 11.8347 -0.00157488 0.00247867 -0.00326922
727 1 13.6791 17.0643 15.6039 -0.000820276 -0.000425068 0.000371597
321 2 12.6097 10.2486 11.6439 0.0012255 0.001135 0.0018002
804 1 11.6022 15.0334 13.8457 0.000555133 0.000492533 -0.00214912
398 2 17.9713 10.7837 10.1412 -0.00194453 0.00162899 -0.000123248
78 1 13.6746 17.3894 12.2516 0.000563433 0.00195434 0.00353674
176 2 13.0005 9.44543 14.0389 -0.00109082 0.0011364 -0.000451371
860 2 14.4538 9.91311 16.2894 -0.00427612 -0.000431198 -0.00128983
834 1 16.2711 17.4193 14.0985 0.00344995 -0.00212399 0.00292984
180 2 15.3039 8.73184 14.3699 -0.00214098 -0.00277223 -0.00569216
677 1 9.9473 11.3178 14.3189 0.000451324 0.00177969 -0.00401521
960 2 15.8006 11.3015 15.1314 -0.000558239 0.000255243 -0.000401741
438 2 16.7444 12.3382 12.8942 0.0024923 -0.0033585 0.00354711
950 1 15.1318 12.9079 17.5605 0.00207018 -0.00136849 -0.00268872
512 1 12.6238 12.5529 15.0154 -0.0056713 0.00204618 -0.00014974
131 1 12.5502 14.5151 17.3561 0.000987763 -0.000245019 -0.00330351
465 2 14.4505 11.007 13.0865 0.00120398 -0.000563919 -0.00196901
858 1 9.95453 13.8353 15.6376 -0.00385622 0.000830777 0.00260924
59 1 11.8888 11.7848 17.7594 0.00326633 -0.00231785 0.00216526
721 1 15.514 15.771 17.2911 -0.004095 0.00389231 -0.00214682
841 1 14.7814 14.6007 14.6312 0.00361271 0.00100587 0.000763903
742 2 16.2536 9.36958 12.2808 -0.00345757 -0.00328597 0.00290739
382 1 14.0395 13.8678 11.8734 -0.00392381 -0.000861404 -0.00172012
55 1 14.434 15.5096 8.87803 -0.00169618 -0.00119318 -4.11067e-05
356 2 17.131 12.902 10.6682 0.00068276 0.00188152 -0.00286247
535 1 11.3052 12.8345 12.1077 0.000619344 -0.000973566 -0.000347265
380 1 10.5095 16.7516 16.6335 0.00307315 -0.00216569 0.00178852
926 1 11.9736 15.3558 10.0492 -0.000574457 -3.74231e-05 0.00155423
204 1 10.5137 17.4195 11.618 -0.00160145 -0.000171174 0.0024999
533 1 9.41975 10.2907 17.327 0.00258111 -0.00509703 0.00154132
128 1 13.4899 12.6992 9.35009 -0.00102105 0.00134364 -0.00193286
366 1 9.5034 15.1526 8.9468 -0.00129931 -0.000908859 0.0035326
181 1 16.3147 15.9369 11.0017 0.0028994 -0.00257653 0.00034204
590 2 13.5187 9.74323 9.51494 0.000968049 -0.00223656 -0.00103372
151 2 17.6488 10.163 16.1675 -0.000188853 0.00267721 0.00153972
103 2 20.4068 9.24289 14.1546 0.00205095 -0.00210073 -0.00141789
624 1 23.8467 18.1712 11.1133 0.00130968 0.00137397 -0.00242566
193 2 21.9173 9.6865 16.2264 0.00101494 0.00154094 -0.000435223
263 1 19.1445 17.1069 13.6313 0.00253896 -0.00322236 0.00260327
331 2 17.6989 14.2978 13.5546 0.000490851 0.00247659 -0.0033654
821 1 21.2173 16.2776 15.1092 0.00252707 -0.00114825 -0.00394237
705 1 24.2168 15.9382 15.0984 0.00012473 0.00175514 0.00322914
439 1 0.322226 17.0132 15.0582 0.00104189 0.000493062 -0.0033487
69 2 18.292 10.3713 13.7923 -0.00110737 0.00167805 0.000757709
755 2 22.4374 10.4867 10.1964 -0.00401144 0.00108576 0.00331663
559 2 24.4601 10.0471 11.9717 -0.000724871 -0.00271155 -0.00082938
346 2 21.094 14.1816 12.4855 0.00218157 -0.00199652 0.000688437
955 2 19.7558 13.7719 14.4746 -0.00582016 -0.00402397 -0.00423176
316 2 23.7312 11.4905 18.1678 -0.000952799 -0.00204561 0.00147515
979 2 18.9031 12.233 12.3867 0.00165879 -0.00333597 0.00195835
113 2 23.8452 14.1774 12.1583 0.00490123 -0.00394182 -0.000245531
260 2 22.5294 10.4063 13.8769 -0.0012007 -0.00273587 0.00295245
621 2 25.8785 12.8704 12.2502 -0.00106017 -0.00134993 0.00223351
655 2 23.6738 11.0678 15.8601 0.000721996 -0.00355847 -0.00130565
644 2 18.1352 14.8829 16.3281 -0.00336987 0.00165113 0.00163074
200 1 25.2601 14.1546 17.5547 0.0035851 0.00015691 0.00110113
538 2 17.7177 12.4576 15.0917 -0.00247243 -0.00202141 -0.00374796
778 2 24.7006 9.18895 14.6001 -0.00514168 0.000620227 -0.00289466
81 2 20.8145 10.3172 12.1324 0.000428863 0.00278207 0.00114928
747 2 24.3443 9.1196 17.3024 0.00223163 -0.00143334 0.000626337
129 2 22.1608 15.1453 10.6355 -0.00146347 -0.00219925 -0.0010398
372 2 24.109 14.1456 9.61199 0.00252819 4.39761e-05 0.00327976
93 1 22.4338 15.6587 17.8157 -0.000279052 0.00348622 -0.000321136
6 2 22.5308 12.0154 12.1045 0.00171757 0.000652351 -0.00111142
751 2 24.4966 11.9446 13.8926 -0.00176172 -0.00126489 -3.4587e-05
118 2 25.0682 11.7372 8.2761 0.00119083 -0.000448627 -0.00166477
203 2 24.5054 12.2124 10.6523 0.00110864 0.0015446 0.00414381
941 2 20.5428 14.6562 8.99738 0.0020251 0.00256146 0.00152914
862 2 22.3015 13.2486 14.237 -0.00413507 -0.00286955 -0.00267102
763 1 26.611 13.9585 15.1265 -0.00179143 5.35639e-05 0.00304171
375 2 19.869 11.2378 16.0924 -0.00359243 0.00361112 -0.00248034
529 2 19.9342 13.5719 17.1484 0.000165213 -0.00439008 -0.00108763
211 2 24.6815 9.9929 9.67793 0.000660444 -0.00489914 -0.00464729
44 2 19.1915 14.2368 10.9894 -9.0174e-06 -0.000293857 -0.00256526
370 2 20.4334 12.3691 10.4758 -0.000333025 -0.000703361 -0.00427331
775 2 20.2695 10.3577 9.04498 0.000739198 0.00109369 -0.00204416
847 1 0.428145 22.5307 13.3421 -0.000406965 -0.000367503 0.00323308
126 2 4.55846 25.8417 10.7304 0.00321084 0.00214094 -0.00100357
863 1 3.77759 19.2163 10.8557 -0.00107947 -0.00322782 0.00026754
520 1 6.53212 21.7645 16.3994 0.000959121 -0.00116948 0.000644861
952 1 0.715363 19.7621 14.9719 -0.00264437 -0.00171862 0.00432197
954 1 1.58634 17.4743 12.4044 0.00102066 -1.8192e-05 -0.00195762
208 1 6.09419 19.4253 14.4694 -0.000546208 0.00414277 0.00324585
369 2 2.46139 26.6639 8.69069 -0.000901865 -0.00269994 -0.00155346
672 1 1.27961 20.2947 11.8419 -0.00189146 0.00189888 0.000823142
79 2 6.33082 23.8051 9.91394 -0.000884543 0.00210808 0.000799459
409 1 8.74251 22.1191 10.2264 -0.00248184 -0.00155119 -0.00103205
912 1 1.84833 24.5191 14.531 0.000462498 -0.00068028 -0.00340072
671 1 1.91589 26.6788 16.7892 -0.00238717 -1.69184e-05 0.000421596
13 1 2.73081 23.7762 11.8817 -0.00141506 0.000394266 -7.84081e-05
904 1 3.38743 18.779 14.35 -0.00301264 0.000657021 -0.00330095
420 1 7.16162 24.9878 15.5085 -0.00578992 -0.000892097 0.00231874
243 1 3.46639 21.6217 13.5427 -0.00251935 -0.00441801 0.000427814
343 1 1.7438 26.6777 11.9044 0.00375727 -0.00117452 0.00197925
508 1 1.12837 22.4617 16.2803 0.000904404 0.00319615 -0.00196151
24 1 5.72453 21.3661 11.8705 0.00284578 -0.000975891 0.000256174
750 1 5.62755 24.0419 13.1915 -0.00107913 -0.00122487 0.00153336
397 1 7.57574 22.0538 13.7571 0.000277324 -0.00182787 -0.000686726
67 1 8.76138 24.4145 12.8239 0.00126608 0.000457347 -0.000891249
908 1 4.40585 23.5252 15.7705 -0.00392508 -0.00166276 -0.00300858
570 1 6.82593 26.5722 13.0455 -0.000812534 0.0024708 -0.000183416
981 1 6.80685 17.3846 12.0217 -0.00353525 -0.00226707 0.00128356
578 1 3.59905 20.9503 16.4994 -0.0020626 0.00380068 0.00039249
611 1 0.749641 18.5888 9.56003 -0.000666771 -0.00226782 -0.00367656
616 2 4.28051 22.4221 9.23739 0.000828677 -0.00397741 0.00222738
541 1 6.82876 20.2928 9.27928 -0.00182263 -0.00262317 0.000973324
717 2 7.54253 26.1401 9.8821 -0.001166 0.00288295 0.00231796
823 1 3.99941 26.2642 14.2591 0.00337054 -0.00303731 -0.002803
32 2 8.32617 24.4953 7.62417 -0.00404425 0.0038851 -0.00209105
326 1 9.57098 23.1068 15.578 0.000545887 0.0025885 0.000560493
175 2 0.349547 25.2149 8.10698 -0.00314629 0.000302396 0.00103845
277 2 1.89775 21.3697 8.94943 -0.00038186 0.00261255 -0.0017712
663 1 18.0296 18.2164 16.2195 0.00129055 0.000807398 -0.000243824
815 1 16.8246 25.9179 13.5571 0.00324128 -0.00403597 -0.000395604
178 1 12.2779 19.5827 10.6668 -0.00286681 0.000338452 -0.000446911
189 1 13.8834 20.5889 12.7359 0.0019098 0.00285721 0.000789436
117 1 11.847 18.8358 13.9207 -0.000183442 -0.00110636 -0.00274436
444 1 16.4378 22.0586 11.7683 0.00163515 -0.00430271 0.000734435
827 1 14.1288 23.6974 12.521 0.00144868 -0.00207984 0.00188754
481 1 15.7465 22.3848 14.7385 -0.000102022 0.00200958 0.00318909
121 1 17.0287 24.6927 16.7954 0.0023767 0.00167472 -0.00191218
269 2 9.83747 25.1016 9.83821 0.00323882 -0.00185376 -0.00224279
25 1 11.8182 19.9287 16.5199 0.00193066 -0.00351446 -0.00234756
708 1 11.592 24.7465 14.1386 0.00230051 -0.00472776 -0.000324846
267 1 14.841 19.7252 15.6883 -0.00385859 0.000207635 -0.00111593
887 1 11.0228 21.8494 12.8102 -0.00297597 0.00153214 -0.00115922
995 2 15.9767 0.8038 11.2353 -0.0010655 -0.000795327 -0.00110688
679 1 17.7491 20.5936 13.8866 -0.000903537 -0.0014975 0.000386251
822 1 11.5843 22.691 10.2371 0.00105686 0.00103437 -0.00166189
289 1 14.6893 18.1754 9.63489 0.00245401 0.000968965 0.00268703
782 1 8.89326 20.1702 15.2321 0.00230799 0.000378507 0.00123984
802 1 16.8239 23.249 8.933 0.00229633 0.00200612 0.00158612
273 1 9.95949 19.4816 8.95982 -0.000667052 -0.000562897 0.00169401
166 1 14.3403 22.1781 10.024 -0.000817657 -0.000927009 -0.00337413
629 1 8.95728 19.9596 12.2127 0.00253009 0.000264051 0.00335158
516 2 14.9255 25.6801 9.59146 -0.000184651 -0.00234065 0.000458828
140 1 14.41 24.9781 15.1132 0.000684277 -0.000356997 -0.000414383
735 1 12.1831 24.553 16.9737 4.09697e-05 -0.000101068 -0.000845729
86 1 14.7895 26.1833 18.0355 0.000273177 0.00383394 -0.00424811
460 1 12.9494 22.1269 14.9225 0.00246123 -0.000599961 -0.00333181
903 1 14.5905 23.0057 17.7193 -0.000829541 -0.00200855 0.00180661
678 1 16.2217 19.151 11.7537 -0.00172415 0.00265261 0.000881077
792 1 15.6692 20.6104 7.97582 -0.00206268 0.00295948 -0.00224462
999 2 12.3741 25.7149 9.5551 0.00166265 0.000848346 -0.00270737
4 1 17.4092 21.7232 17.1783 -0.00282842 0.00186178 0.00386412
982 1 22.6275 23.3524 11.8651 0.000418419 0.0063981 0.00188492
936 1 23.1603 22.5334 8.71476 0.000554562 -0.00268609 0.00400768
703 1 24.0401 25.0814 10.058 -0.00174741 -0.0013266 -0.00185311
996 1 23.2619 26.1757 17.9635 0.000808642 0.00250353 0.000435534
135 1 21.1428 25.3075 9.91099 0.00361865 0.00130947 -0.000664926
308 1 20.0569 25.2395 13.2457 0.000386862 0.00120287 0.00205108
937 1 21.8352 24.4301 16.1325 -0.000518518 -0.000451893 0.000174185
220 1 25.5043 20.8987 16.6369 -0.00123054 -0.00163859 0.000719898
733 1 0.309085 0.638788 14.2782 -0.00205405 -0.000883092 -0.000575813
556 1 20.7925 21.8518 14.5131 0.00171145 0.00226586 -0.000803571
604 1 22.541 21.0735 17.1119 0.00289783 0.00564209 0.000736879
182 1 22.6972 19.9221 13.1901 0.000675096 -0.00113439 0.000701594
586 1 23.3998 18.6636 15.5964 0.000174357 9.8984e-05 -0.000919082
641 1 0.0179001 24.4407 11.1316 0.00196148 -0.00120142 0.00337367
864 1 19.0979 25.9998 15.5363 -0.00152253 -0.000713675 -0.000504958
344 1 23.9123 25.2753 13.7313 0.000250703 0.00265827 0.00192411
917 1 19.8565 19.5344 12.2447 0.00359764 -0.0027922 0.0022029
283 1 25.7202 25.1932 15.7545 -6.15595e-05 0.00123759 -0.00344304
365 1 20.5384 18.9403 14.9201 0.000400788 -0.00367981 -0.00159118
526 1 24.1425 22.3097 14.0604 0.00104763 0.00019512 0.00450357
486 1 25.3158 19.4211 13.1924 -0.00194383 -0.00143161 -0.000414743
868 1 18.1057 25.2528 11.1256 -0.000313642 -9.81818e-05 -0.00399149
272 1 22.9359 18.8653 18.8378 -0.00207972 -4.89179e-05 -0.000139504
284 1 19.4252 22.5216 11.8654 0.00450073 0.00334218 -0.00127234
150 1 24.4653 19.7152 8.71675 -0.0012248 0.000202764 0.00185817
670 1 18.3082 23.4865 14.5837 0.00482924 0.00111157 -0.00224865
109 1 25.3165 21.8163 11.2586 0.00117085 -0.00253548 0.00278614
225 1 21.8084 17.3594 12.6969 0.000803736 0.00491654 0.000688108
730 1 25.3492 17.2842 17.6803 -1.36531e-05 0.000447567 -0.00054922
396 1 19.187 17.2093 10.1821 -0.000649835 0.0017395 -0.000924786
944 1 26.4506 2.72515 23.9134 -0.00313952 0.00251242 0.00179789
806 1 26.2014 5.82987 24.5376 -0.00119398 -0.00037923 -0.000468032
787 2 5.19571 0.543005 0.342771 0.000918211 -0.00345426 0.000612587
589 1 8.04169 9.1461 21.7998 -0.00132566 -0.000497484 -0.00116957
704 1 0.0192074 8.52256 25.886 0.00342716 0.00231679 9.3753e-05
521 1 7.59802 8.73411 24.6302 -0.00130048 0.000689493 -0.00391536
392 1 5.50339 8.24579 26.4701 -0.00191357 -0.00089322 0.00392986
232 1 1.31831 2.6209 18.6292 -0.000685982 -0.00015776 0.00198717
393 1 0.589388 5.43175 18.333 -0.00102771 0.00271409 -0.000690961
919 2 3.35013 1.93804 26.2264 0.00297853 -0.00495091 0.0003527
492 2 7.80676 3.72755 20.7321 0.00455294 0.00351728 0.00129511
1000 2 6.85267 0.969608 25.052 0.000418762 -0.00176859 -0.00238466
515 2 6.01137 2.9471 26.7592 0.00192718 0.00124567 -0.00196356
759 1 4.77263 7.93611 23.1317 0.00186798 0.000734635 0.00201378
61 2 7.20278 3.56591 24.921 -0.00356591 0.000595587 0.00435758
468 1 26.5403 6.76382 21.4455 -0.00119452 -0.00376395 -0.00286482
153 1 1.10824 4.16594 21.3291 -0.00218686 0.00106583 0.00150822
900 2 2.75962 0.910254 23.8911 0.00225727 0.00219966 0.00299046
623 1 3.37301 2.50282 21.2816 -0.000845095 -0.00121442 -0.00411465
645 1 4.67059 5.72756 25.259 -0.00411945 -0.00115741 0.00100331
865 2 4.94744 2.0824 24.4033 -0.000226991 -7.91087e-05 -0.000398276
228 2 1.11709 2.05269 26.6557 0.00324576 -0.00078776 -0.00110478
23 2 8.09123 5.83808 25.4443 0.00227696 -0.00507321 0.000394488
766 1 2.04117 6.48722 23.0359 -0.00459806 0.00104958 -0.000591926
669 2 6.91175 2.47112 22.532 0.00022763 0.0011943 -0.00121902
575 1 5.72844 1.58741 19.7946 -0.00109251 -0.000815476 0.0040076
585 1 3.43618 4.6567 18.8433 -0.00212021 0.00194743 0.00075998
177 1 5.94745 5.96274 19.8013 0.00128805 0.00208828 0.00357586
885 1 7.66825 0.436336 17.6361 -0.000743766 0.000122387 0.00158928
769 1 2.3227 6.93651 20.1717 0.000114195 0.00111565 -0.00359471
275 1 4.41719 5.03409 22.4174 0.000154058 -0.00324842 0.00635778
555 1 2.38055 4.00492 24.4009 -0.00193981 -0.00276867 0.00138961
377 2 7.52247 5.57633 22.7532 -0.000292546 0.00351527 0.00699722
197 2 8.83555 1.02588 22.0542 0.00247929 -0.00066934 -0.00313043
322 2 9.68209 7.01358 17.2154 0.00189046 -0.000715081 -0.000288933
816 2 18.2639 7.36495 19.7 0.00099446 0.00142633 -0.000228367
968 1 10.5148 8.36878 25.9396 0.00391467 0.00113423 -0.00141776
990 2 17.2483 8.90714 18.1639 -0.00385402 -0.0011932 0.00257397
878 1 16.4372 8.89323 25.9319 -0.00088446 0.00147768 -0.00122102
549 2 13.0317 4.16927 21.3982 -0.00262771 0.000405981 -0.00209832
288 2 13.8981 4.21288 19.1936 -0.00123013 -0.0025856 -0.000188842
386 2 14.6474 1.37012 0.681618 0.00239247 -0.000174018 -0.00168023
771 2 9.12135 1.69334 24.4089 -0.00125797 0.00123584 -0.00035318
563 2 13.911 6.97386 19.9061 -0.000386899 -0.00110828 -0.0012425
971 2 16.1525 8.18836 20.2791 0.00339371 0.0027895 0.00678153
495 1 16.741 0.505471 25.6871 0.00269293 -0.000139972 0.000106761
988 2 11.6768 1.89313 23.8971 0.00242877 -0.000866059 0.00143023
433 2 8.9279 5.71546 19.0465 0.00108704 -0.00142651 0.00315387
820 2 12.5049 6.20879 17.5622 0.000706191 -0.00115637 0.000984104
333 2 14.2275 1.86914 22.9942 -0.00163605 0.00295361 0.00258986
693 2 9.33273 6.28673 21.3161 0.00169964 0.000681419 0.000962273
894 2 14.308 1.793 20.1705 -0.00140734 0.00198429 0.00239387
499 2 10.4484 3.53316 20.8716 0.00167304 -0.00132696 0.00103558
70 2 9.02647 3.5543 22.8132 -0.0049014 0.00455549 0.00115237
874 2 16.2795 3.14369 19.4577 -0.000823779 -3.00823e-05 -0.00192104
46 2 10.4063 7.58068 19.2381 0.000466205 -0.000220511 -0.000581419
695 2 14.3622 5.82186 22.4923 0.00236172 0.00569401 0.00483332
339 1 13.5993 6.80834 0.221131 -0.00230469 0.00508606 -0.000151484
16 2 9.60292 3.89169 25.3617 0.00164146 0.00165447 3.2077e-05
756 2 15.8991 5.42824 20.618 -0.00296722 -0.00224863 0.000372198
811 2 13.7057 3.89803 24.5035 -0.00147892 3.79662e-06 1.26798e-05
901 1 13.1296 7.79675 24.235 0.00204642 -0.00247521 -0.00017618
892 2 11.6225 5.12622 25.271 -0.00134859 0.000943259 -0.00201
517 2 9.26971 1.97692 19.4742 -0.00212483 -0.00053167 -0.0013102
898 1 16.6478 3.34685 25.5954 0.000668907 -0.00178072 0.00138093
539 2 13.4786 1.11889 25.4716 -0.00225292 -0.0025537 -0.000676215
770 1 17.7002 1.88496 23.0751 -0.00169301 -0.000590249 0.00279784
36 2 11.5525 6.16185 21.1281 -0.0003841 0.00250673 0.000951548
142 2 10.6389 4.38859 18.4555 0.00164796 1.46126e-05 0.00080002
818 2 11.9598 2.49748 19.0703 8.22499e-05 8.51788e-05 -0.0034194
688 2 11.4575 3.99185 23.0799 0.000755349 -0.00171017 -0.00227763
661 2 10.0608 5.94448 23.7912 0.00232842 0.0038848 0.00208605
613 2 15.3426 3.3803 21.6955 0.00277229 -0.00021744 0.000169688
262 1 15.9681 6.12736 24.9845 0.000890091 -0.000931896 -0.00479454
871 2 13.9727 3.65513 0.348879 0.000482348 -0.00258708 0.00319282
169 1 17.9875 5.10463 23.1023 0.000736418 -0.00192506 -0.00207885
143 2 11.8452 2.90143 26.0758 0.00354817 0.0034518 -0.0012603
933 2 9.6365 5.57031 0.471391 0.000544153 0.00218734 0.000560326
51 1 24.4537 5.70238 19.2354 0.00138487 0.00338847 -0.00250591
328 1 18.6674 2.44709 0.870078 -0.00133426 0.00380235 0.00399962
461 1 23.2799 2.25304 22.4327 -0.00146197 0.00403846 -0.00476472
222 1 24.1517 3.73274 25.7114 -0.000543522 -0.000550653 0.000868016
408 1 21.6792 5.54906 26.024 0.00301561 -0.00168398 -0.00461375
631 1 24.5439 8.60521 20.3241 -0.00247971 -0.00210096 -0.00373586
34 1 22.6496 1.30487 25.1387 -0.00148874 0.00176636 0.00200796
734 1 25.5698 2.84099 19.4341 -0.00188714 0.0038405 0.00280779
427 1 24.6619 4.75746 21.9891 0.00184813 -0.00033172 0.000903221
739 1 20.0868 5.37 21.0342 -0.00109982 0.00507516 -0.000812729
463 1 22.7684 6.96751 21.4892 -0.00469772 0.00176216 -0.00350608
12 1 24.6199 0.286337 20.4818 0.000409144 -0.00150484 0.00300578
794 1 21.8679 1.0364 19.9941 0.00276564 0.00030465 0.000371881
259 1 24.5872 7.04128 0.3321 -0.00336924 -0.00684936 0.000388764
716 1 23.6335 6.98563 24.4037 0.00184114 -0.0032674 -0.00284784
454 1 18.8013 6.61006 25.7999 -0.00221991 0.00130232 0.0025027
873 1 19.3116 2.80014 20.775 0.00174626 0.00270721 0.000339055
198 1 21.2249 8.78689 26.1327 0.00339395 0.00477228 0.000258689
480 1 20.7098 6.78168 23.5463 0.00253613 -0.00154811 -0.00253135
389 1 20.3119 2.28716 18.0123 0.00148155 -0.00235465 -0.00114422
134 1 18.1181 8.19756 23.2036 -0.000719387 0.00199444 -0.00317592
542 1 20.2419 0.345044 26.4117 0.000239173 0.000140678 -0.00351331
320 1 0.635265 1.19844 21.4496 0.000567727 -0.000294681 0.00164557
184 2 22.3359 7.52475 17.4428 -0.00108572 0.00144129 0.00151204
654 1 17.887 0.56853 18.15 0.00128598 -0.000702815 0.00159107
959 2 17.8763 4.89316 18.9035 1.16311e-05 -0.00269901 0.00217071
601 2 20.5225 7.09682 18.8298 0.00130069 -0.000627696 0.00335318
426 1 25.2782 0.448005 23.5545 -0.00213185 -5.31387e-05 -0.00118547
74 1 19.8305 3.35783 25.1268 -0.00116925 -9.38992e-05 -0.00132794
927 1 22.3415 3.82534 20.3395 -0.000312718 -0.000311956 -0.000130302
447 1 21.9862 4.47226 23.3443 0.000390794 0.00186732 -0.00184412
761 1 5.70589 17.9563 23.2954 -0.000750519 -0.0019562 0.00182908
883 1 2.25242 9.37371 22.0265 -0.00295031 -0.00396939 0.000155351
304 1 6.50678 16.747 19.2362 0.000882331 -0.00380796 0.0003461
710 1 1.96337 14.5635 20.9041 0.00194008 0.00151358 -0.000868224
583 1 4.65676 12.2862 17.784 0.00163828 0.00074362 0.00134091
849 1 3.02501 11.548 26.3752 -0.000737139 -0.0029866 0.00129299
932 1 5.51409 11.3891 21.749 0.0008975 -0.00661488 -9.45326e-05
335 1 0.97404 13.3888 0.236019 -0.000989267 -8.91544e-05 0.00071666
446 1 1.15614 15.6683 18.3295 0.000382343 -0.00317302 -0.000266708
798 1 2.6805 9.03227 25.071 0.00370562 3.50697e-05 0.000834494
627 1 1.84306 13.1521 17.4733 -0.00125392 -0.00135716 0.0011015
511 1 3.72383 16.715 25.0267 0.00321793 -0.00101611 -0.00419734
870 1 2.87904 11.8321 23.0544 -0.000139601 0.00179755 0.00143846
597 1 6.45704 16.102 25.2849 0.000448285 -0.00114117 -0.00154773
424 1 3.73691 16.083 22.2999 0.00257606 0.00240164 0.000878639
767 1 2.60512 11.9455 20.1236 -5.84785e-05 0.00172083 0.00204848
358 1 5.21284 13.525 23.8406 -0.00338115 0.00119491 -0.00307696
897 1 4.70341 14.0045 20.6128 -0.00402649 0.00500862 -4.73682e-05
165 1 8.32668 13.1391 21.2345 -0.000877006 -0.000521335 -0.00137848
757 1 2.45703 14.0777 24.5674 -0.000260882 -0.00704065 -0.00179344
479 1 4.86221 8.5599 20.4513 0.0020135 -0.00234196 -0.00138704
185 1 4.11022 15.3223 18.0229 -0.00276353 0.000371255 -0.00114205
47 1 5.42196 10.6314 24.5716 -0.0029037 -0.00117982 0.000518837
540 1 7.13034 15.7008 22.4934 0.00141189 -3.5907e-05 -0.00165965
368 1 26.4738 15.2849 25.1424 -0.00200544 -0.000893922 0.0008695
789 1 8.23028 11.5561 23.7057 -0.000321712 0.000219618 0.000269005
706 1 6.93383 10.9876 19.2564 -2.31299e-05 0.001801 -0.000909854
530 1 8.79098 14.0226 25.2067 0.00037404 0.00209742 0.00441242
280 1 9.27798 16.1322 19.6019 -0.00355556 -0.00591802 0.002799
319 1 6.84659 13.7995 18.8322 -0.00217935 0.00032567 0.000596471
814 1 0.740145 16.494 22.6598 -0.00337547 0.00295569 0.00102479
253 1 8.20338 11.0652 26.6466 -0.00130377 0.000607581 -0.00135723
374 1 8.57801 17.6054 24.2741 -0.00198871 0.000487866 -0.00338282
349 1 2.45046 10.0284 17.8006 0.00111751 -0.00085866 0.00325898
598 1 0.470056 11.2992 25.0224 -0.00317003 5.65097e-05 0.00318054
743 1 9.64409 13.3332 18.7257 0.0020064 0.00230853 -0.000728448
500 1 16.4177 15.1305 22.86 0.00105432 0.000782748 -0.00179554
552 2 12.4746 8.83183 21.2752 0.00513347 0.00121249 -0.000605809
899 1 10.1371 15.4698 22.3945 -0.000753157 0.00102717 4.33936e-05
149 2 12.3798 8.45328 18.5495 -0.00413391 -0.000537927 0.00202622
17 1 14.6859 15.8259 24.8527 0.00323946 -0.00194375 0.000119492
909 1 11.7565 14.9042 24.7003 0.000393998 0.00413128 0.00105102
179 2 14.7783 9.24728 18.8365 -0.000991868 0.000162903 -0.000382651
309 1 13.1626 10.8757 23.8457 -0.00372221 -0.00185749 0.00225086
595 1 12.2398 17.2956 19.1858 -1.99432e-05 0.00441263 0.00257033
877 1 18.0167 12.1292 18.9802 -0.00114401 -0.00213769 -0.000444166
302 1 16.0609 12.0622 23.7629 0.00158868 -0.00140575 -0.000158226
632 1 11.0269 11.3731 25.6792 -0.00217814 -0.00402247 -0.000664005
464 1 10.0185 10.6963 20.3076 0.0021139 -0.002897 -0.000911371
29 1 15.8723 11.857 20.8401 0.00261133 0.00134753 0.00140949
39 1 14.8647 14.6553 20.1846 0.00198047 -0.00642366 0.00536511
164 1 13.3795 9.6083 26.4638 0.00296561 0.00255789 -0.000510835
455 1 15.3881 9.29247 22.9498 0.000561574 -0.00312663 -0.000923812
237 1 18.808 17.733 23.7438 -0.00365941 0.00252518 -0.000456347
889 1 10.8824 12.7401 23.0418 0.00430759 -0.000967365 0.000139356
639 1 13.5294 16.4431 21.989 -0.00215506 -0.00131559 0.00463118
63 1 11.8556 14.5912 20.1101 -0.000588682 -0.00331885 0.00332078
956 1 13.8286 13.5017 22.7547 0.000486171 -0.000206263 0.00255174
242 1 14.2517 13.2247 25.5894 0.000767966 0.0010997 -0.00139599
963 1 10.3113 9.42726 23.3307 -0.00127202 0.00103003 0.00454481
796 1 13.0023 11.6332 20.441 0.00044586 -0.00151112 0.000186875
980 1 17.5951 15.2206 19.2623 0.0011291 -0.00190205 0.00277619
436 2 19.8543 9.21026 17.9829 0.00062764 0.0016904 -0.00084901
45 1 0.205779 11.2168 22.2484 0.00175958 -0.00140526 0.000250644
925 1 21.6116 16.8306 23.0149 0.000611327 0.00200826 -0.00201859
915 1 0.310823 9.57213 19.6186 -0.00267624 -0.00343358 -0.00123361
548 2 21.2383 11.6333 18.4713 -0.000131766 -0.00116659 -2.15517e-05
77 1 18.0893 10.3182 21.1741 0.00139205 -0.00299898 -0.00231562
133 1 18.2694 13.0434 22.1372 -0.00155001 -0.00442678 0.0013027
299 1 17.9348 16.1701 26.2375 -0.000359556 -3.65884e-06 0.00102636
91 1 21.2243 15.8779 25.7488 -0.00216177 -0.00170596 -0.00189743
167 1 21.3633 11.9086 24.6614 -0.000645996 -0.000827878 -0.00148893
101 1 23.5841 13.9804 20.2108 -2.84455e-05 0.00507673 0.000986519
62 1 26.331 12.6523 19.8483 -0.00144562 0.00275148 -0.003761
653 1 19.8597 14.7986 23.4807 -0.00198377 -0.00162808 0.00119207
347 2 22.0891 13.1032 16.5962 -0.00176942 -0.00151531 -0.00109407
504 1 18.7072 10.9467 24.0586 0.00180717 -0.00128495 0.00100687
411 1 24.0529 9.96081 26.0826 0.000270273 -0.00149433 0.00283002
402 1 26.2604 13.7302 22.6023 0.00513282 0.00197152 -0.000839581
844 1 24.5536 12.2544 24.215 -0.000353344 -0.000473994 -0.00118711
435 1 25.8143 15.661 20.3508 -0.000396738 -0.00145949 0.00206169
784 1 24.7254 16.2591 22.9579 -0.00197741 0.000479286 -0.00227876
596 2 22.2501 9.47055 18.6599 0.00237193 0.000623156 0.00152625
186 1 20.3936 8.80879 21.384 0.000873279 -9.25323e-05 0.00457259
170 1 19.9724 16.8507 18.1047 0.00308 -0.00594299 0.00253081
707 1 23.1384 16.7906 20.4904 -0.000429107 0.00254374 -0.00510933
403 1 18.6903 16.6764 21.3415 -0.000599915 -0.000842105 0.00320964
268 1 22.5108 9.45894 23.1631 -0.00162864 0.00144392 0.000105953
48 1 25.8976 8.88198 23.1143 0.00246419 -0.00222454 0.00389357
363 1 24.0116 14.3203 25.9197 3.24177e-05 0.000969981 -0.00217782
628 1 24.1068 11.0525 21.275 0.00133173 0.00238403 0.00460275
581 1 22.7268 14.0855 23.1516 -0.00396211 0.00118324 0.000306704
490 1 20.8868 14.5322 20.0739 -0.00118213 0.000733453 -0.00207078
379 1 21.1801 11.8016 21.5784 -0.0022476 0.00319391 0.000523862
105 1 23.462 18.1277 24.9955 -0.00083807 0.000451461 -0.00365014
421 1 4.69592 19.4256 20.9602 -0.00125566 -3.03235e-05 -0.0017766
913 2 3.91714 23.4395 25.6033 -0.00173625 0.00123806 0.00277446
934 1 2.179 21.2853 20.5705 0.00129272 -0.000502725 -0.000510015
458 1 4.40799 22.0634 22.0695 0.000376982 0.00142444 -0.000618798
130 1 2.39671 18.9121 22.6914 -0.00238757 -0.00199805 -0.00245002
902 1 2.2819 17.5066 20.0323 0.000765401 0.00209699 -0.00273906
40 1 7.28657 23.4425 21.7761 0.00160518 0.0031226 -0.00206664
82 1 7.66528 25.8139 20.3037 -0.000112043 0.00102037 0.00127595
618 1 1.87974 22.1199 23.5376 -0.00243517 0.00247986 0.00260167
119 2 7.46738 25.8228 23.699 0.00143799 -0.000801689 -0.00255086
522 1 7.82223 18.6048 21.5636 -0.00371078 -0.000918789 -0.00446232
64 1 4.90815 24.5737 20.3702 -0.000904271 0.0010425 0.00131186
274 1 6.79576 23.8882 18.263 0.00520478 0.000662175 -0.00212097
506 1 0.57361 19.7344 18.5966 -0.00182579 -0.00163421 -0.00256897
173 1 4.44405 21.8926 18.915 -8.14863e-06 -0.00292325 -0.00209232
845 2 4.5722 24.6046 23.6951 -0.00104138 0.00128991 -0.000398021
102 2 8.80663 25.9127 26.133 -0.00132124 0.00170229 -0.000129774
112 1 26.6045 25.1324 22.0094 0.000102628 0.000488007 0.000906921
744 2 2.53424 24.8075 0.368331 0.00138082 0.00265213 -0.00306823
946 2 2.1121 25.1168 24.0506 -0.00136148 0.000138117 0.0012708
800 1 7.02406 21.0618 19.893 0.000357488 -0.0041953 -0.00131082
373 2 8.45106 23.7667 24.9312 -0.000947429 -0.0016179 -0.00133874
327 1 5.08715 19.06 18.0289 0.00140262 -0.00324736 0.00122082
543 1 1.98445 19.0471 25.5043 0.000457628 0.00459221 -0.00203636
251 1 9.53478 24.7917 18.3235 0.00170878 -0.000776144 -0.00161185
647 2 3.87791 26.1556 25.5919 0.00228779 0.000203798 0.00155385
49 1 2.7357 0.13113 19.6449 -0.000437294 -0.00240066 -0.00118277
835 2 5.38645 0.268924 22.7822 -0.00199788 0.00108965 -0.00188095
418 2 0.998957 26.3035 25.8276 -0.00231503 -0.000883134 6.30786e-06
560 1 4.83473 25.833 17.6129 0.00314856 0.000451646 0.00113713
345 2 6.33071 25.3179 25.8044 -0.00155909 0.00368722 -0.00167847
265 2 6.40094 22.653 25.6325 0.000100211 2.88401e-05 -0.00314344
33 1 6.79035 19.7996 25.5254 0.000469557 0.00109529 0.00285358
930 1 2.40082 24.2327 21.1762 -0.000937866 -0.00256269 0.00420213
399 1 6.7573 20.8933 22.8988 0.00305958 -0.00423183 -0.00100462
31 1 2.77131 24.0742 18.0612 0.00161904 -0.00469151 0.000218732
554 1 4.24856 20.417 24.4717 0.00015222 -0.00157555 0.0014412
218 1 4.62921 18.5692 0.161535 -0.000203441 -0.000247462 0.00115484
519 1 10.7469 24.4331 20.8818 0.000637714 0.00331342 0.000368181
942 2 9.77267 26.0342 23.7154 0.000600615 0.000234178 0.00110169
642 1 11.299 23.3298 23.5642 0.00173635 0.00537284 -0.00403602
536 1 13.5287 22.3075 21.6218 0.00255849 0.00133204 -0.00336803
50 1 15.846 26.061 23.2273 0.0014411 -0.000423467 0.00310097
634 2 10.3739 23.7576 26.4409 0.000589538 0.000466256 -0.000822133
839 1 16.4101 18.4505 21.6953 0.00214682 0.000132037 0.00295685
456 1 15.3632 24.3116 20.5421 -0.000686732 0.00122126 -0.000610455
626 1 13.6578 20.2678 18.6451 0.00100758 0.00429836 -0.00344392
394 2 13.9577 25.7745 26.5074 -0.0010603 0.00134168 -0.000206606
987 2 11.6761 26.3937 25.6274 0.000921965 -0.000777414 -0.000521678
340 1 17.1367 23.2611 22.5862 -0.0016243 0.00242456 0.00125621
30 1 16.8965 24.3828 25.1835 0.000181571 0.00109156 0.00240278
557 2 12.1244 1.95161 21.4607 -0.00360913 0.00209448 0.00126199
507 1 10.5725 19.5097 19.3653 -0.00222684 0.000586723 -0.00268375
939 1 12.9295 20.8853 24.1597 0.00525909 -0.00595853 -0.00144324
478 1 10.8444 18.4688 22.0993 -0.0021915 -0.0020038 -0.0011933
572 1 12.868 25.9237 22.3539 0.000755979 0.00487239 0.00446635
518 1 14.3147 23.4804 24.044 0.00425281 -0.00419069 -0.000365085
544 1 11.6637 22.2889 19.0606 -2.62208e-05 -0.00232287 0.00029847
809 1 16.7312 26.6475 20.5823 -0.000921448 0.00318948 -0.00209059
266 1 16.0873 21.1705 19.6483 0.00182975 -0.000581648 0.00141352
976 1 15.217 18.3706 24.5031 -0.000853197 0.000610581 -0.00429989
18 1 15.5359 21.4299 25.8049 0.00121493 0.00492886 0.000582901
608 1 12.1596 17.7301 24.4457 -0.00120183 0.00289784 -0.000741083
524 1 13.6912 19.1227 21.4086 0.000686823 0.000835395 -0.00205358
948 1 12.2629 25.969 19.4749 0.0011057 0.000424984 0.00210926
311 1 9.12791 20.9546 24.2077 0.00267192 -0.000293361 0.00120756
833 1 10.3284 21.3928 21.5499 -0.00102553 0.0015793 0.00127397
252 1 9.01741 21.4973 17.8672 0.000238604 -0.000364684 -0.00262058
664 1 15.4169 20.7394 22.9442 0.00230732 -0.00149718 0.00179504
66 1 15.0511 17.695 19.1284 0.000485896 -0.00286109 -0.000841012
155 1 21.1201 18.7905 26.5194 0.0031032 0.0020766 0.00100031
711 1 24.6566 23.4664 17.5772 0.000765866 -0.00166339 -0.00294092
73 1 25.9433 18.4756 20.8887 9.5335e-07 -0.00466597 0.000395013
154 1 22.4937 25.7005 22.2718 -0.000708604 0.00169851 0.000885842
440 1 19.883 19.7239 17.6251 -0.00142595 0.00137231 0.00042846
648 1 26.1362 19.1409 23.8488 -0.00100826 -0.00169351 -0.00273548
920 1 26.7415 21.1549 26.0709 0.000810933 -0.000860366 0.00395247
953 1 0.148312 22.6128 19.0001 0.000125721 0.00446282 0.000750251
300 1 24.1604 25.7404 26.0072 0.00417466 -0.000482564 -0.00245369
414 1 26.2616 21.555 21.7907 -0.00387045 -0.00226467 0.00309795
168 1 19.0884 25.8928 24.1689 0.0011329 -0.00083805 -0.00161257
388 1 0.0666609 25.4553 19.115 0.00273857 0.00175002 0.00432508
993 1 20.0711 25.5819 18.143 -0.000605734 0.0018762 0.000296691
882 1 18.9589 22.1829 24.9919 -0.000946543 -0.00129376 -0.00194701
287 1 25.8884 23.3089 24.1176 0.00151823 -0.00122965 -0.00383767
997 1 20.3603 23.1027 22.0103 -0.00118828 0.0046275 0.00170677
510 1 24.6615 23.6185 20.5067 0.000782107 0.00137212 -0.00509567
38 1 24.9052 20.8295 19.258 0.00416258 -0.00223322 -0.00269846
240 1 23.0238 22.8168 22.7952 -0.001134 0.000928831 -0.00278049
622 1 21.0892 20.4915 23.96 0.00094037 0.000870633 0.00123788
571 1 20.5925 1.37121 23.3294 -0.0044407 0.00234043 -0.00150308
694 1 18.7526 21.3908 20.1032 0.00216826 -0.00102537 0.0020506
745 1 21.908 24.1593 19.6283 0.00289903 0.00145308 0.00252278
685 1 23.9826 20.7883 24.6771 -0.00327432 0.00352565 -0.00205471
241 1 21.2225 24.2383 25.1071 -0.0030234 0.00161791 -0.00401937
192 1 19.9031 22.8468 17.5473 -0.00192082 0.000986568 -0.00289497
120 1 18.3844 20.5059 22.6972 -0.00115599 -0.00262543 0.000531506
612 1 22.2471 21.422 20.1834 -0.000199086 -0.000356127 -0.00286568
125 1 19.5575 26.3493 21.2072 0.000429834 0.00227072 -0.00332581
531 1 23.5521 19.4037 22.0547 3.73823e-05 -0.00109899 -0.00296237
958 1 17.7205 18.6521 19.2029 0.00194314 0.00179934 0.00112544
723 1 20.4025 19.2691 20.9293 -0.000244811 -0.00143961 0.000722704
415 1 18.0408 19.6189 25.649 0.000210396 -0.000138405 0.000110081
699 1 18.0745 24.317 19.6167 0.000936041 -0.00100432 -0.0032632
