LAMMPS data file via write_data, version 22 Jul 2025, timestep = 100000, units = real

1000 atoms
2 atom types

0 26.7628766153 xlo xhi
0 26.7628766153 ylo yhi
0 26.7628766153 zlo zhi

Masses

1 69.723
2 69.723

Pair Coeffs # lj/cut/kk

1 0.43 2.97
2 0.43 2.43

Atoms # atomic/kk

457 1 0.3122627794345849 7.477887757804357 1.9076119005901644 0 0 1
737 2 1.0006363611208071 2.488304038680495 7.608092818529355 0 1 1
914 1 5.221502687337252 7.605089990449096 2.611252833251494 0 0 0
297 2 4.733941580166953 6.972256730402295 5.442163993539072 0 0 1
145 2 3.479281329191463 2.365588859971335 7.664164430542267 0 0 0
573 2 3.2273602792663487 0.5587391971725572 6.263149537261687 0 1 1
470 2 3.818452770899968 8.114357509801378 7.520072623463795 1 0 1
635 2 2.705594526918768 3.703073064290315 5.9154659419057065 1 0 0
749 2 25.868701430454525 6.4586066643305555 6.751621915856416 0 0 0
579 2 4.388399091105634 0.4803227296364024 3.6151559628838306 0 1 0
104 2 5.067104792295403 4.741605396239242 6.693651413044748 0 0 0
291 2 3.1183325899466943 6.0735022402341965 6.987149697117575 0 0 1
729 2 7.181364789977476 1.913450908838105 5.27289801134871 1 1 0
487 2 0.8537886989992483 1.5469051069303064 2.686606838388962 0 1 0
188 2 4.845049865856441 2.5361682063929964 5.539127192083242 0 0 0
144 2 7.498189260158254 4.281932508641804 6.270986380182353 0 0 1
740 2 5.225029361785818 6.715611525184283 8.490386206344867 0 1 0
501 2 5.008309101448495 2.4418779529950383 2.2359320866242536 0 0 0
148 2 5.957886102164788 2.52818300281891 7.561147393727887 1 0 0
324 2 7.690679577955518 1.1512978324646663 8.26194872668908 0 1 1
966 2 1.2392770971577556 4.3619016864928675 3.1833773263604574 1 0 0
221 2 6.846796483745128 5.375293098642797 1.060212747247514 0 1 0
279 2 3.033927423413974 0.786991744160296 1.712426244998012 0 0 1
286 2 8.988160847721804 2.4112285077658933 6.818333572060678 0 0 0
395 2 25.60871274429202 4.404002813117724 4.769366739768002 0 1 0
476 2 8.422617030721286 3.2249923999234307 0.8658823029709036 1 0 1
895 2 0.8828599427482517 5.100231768950375 5.791419178497426 0 0 0
931 2 0.6133097022686894 0.1888850627119741 6.090981161675868 1 1 0
216 1 2.0622616343734523 6.273053138148197 26.36323929001727 1 0 0
588 2 4.565460608889421 0.8593454331415299 8.920333445660551 1 0 0
591 2 8.105311998415383 3.3889776836873984 9.313028081619933 0 1 1
249 2 6.577923173914259 1.7235105723711117 10.446816905480704 0 1 0
202 2 7.353601858950815 3.0982134728350843 2.8921685394832295 0 0 0
615 1 8.211457550711378 8.2353678686893 1.2394953794534096 0 0 1
336 2 6.9062292091648025 6.561060933610878 6.504295956603351 0 1 1
724 2 7.423623341079187 1.0481785224597353 1.254261038202609 0 1 0
975 2 0.9211799936810136 5.00389591727996 8.492466565966408 1 0 0
157 2 5.307180876683895 4.46698532732378 3.9913674262998846 0 1 0
826 2 0.8320888468536988 2.5686814828028517 5.016995269377117 1 0 0
592 2 7.551366834550778 5.499313545547111 4.286012194378073 1 1 0
754 2 2.716568390379663 3.380174753742063 1.6947557573952297 0 1 0
602 2 6.0061037041207435 4.330332321673564 9.034376739213535 0 0 1
994 2 3.142016009401283 5.409578398178645 4.153520913829825 1 0 0
58 2 3.114719258227195 2.540813382435897 3.638617707219801 0 0 0
183 2 4.384387557569006 4.7139880522566004 1.1964500887326 0 1 0
824 2 17.828753082772405 3.892591809679796 3.3626182982247355 0 0 1
161 2 9.087976144211538 7.535462300587752 6.924767036629022 0 1 0
459 2 9.6810342185125 4.856826430327954 9.87621528880647 0 1 0
471 2 10.493429690400474 6.9078197240029215 8.535239500819024 0 0 0
27 1 16.451648828526174 6.1207814932557065 1.1318533049903796 0 0 1
224 2 13.801319156600282 5.962456949130612 8.356386973434988 0 0 1
842 2 16.536255497756663 7.629443317614586 4.6820985485228555 0 1 0
720 2 10.266908332288143 2.9905186251052935 2.5377600045220885 0 0 1
660 2 11.870371508171313 9.15121727584572 7.7620584930395315 0 1 1
921 2 11.656792525683462 6.987701156162562 6.475471446639744 0 0 1
428 2 10.109470977189009 1.355966014918083 26.46982463863942 0 1 -1
686 2 15.714025113301025 5.752740882135118 6.538057670880177 0 0 0
662 1 11.548386248425112 7.593310725757951 2.2239840339732098 0 0 0
857 2 15.122731951005234 1.4331160800067526 3.4796112823349246 0 1 0
843 2 11.936272516225651 4.81290327703741 4.464821270837806 0 1 0
407 2 14.152700467864092 3.635104892646019 4.8373478584969325 0 0 1
886 2 16.349651348176174 3.174951263610307 5.751837764953698 0 1 1
593 2 17.383751366745553 1.3110286834759275 4.07048528824172 0 0 0
54 2 18.208104114451068 1.6230011339347414 6.401931006314077 0 0 0
473 2 15.502696707794486 3.263525100279622 1.9937255596011354 0 0 0
906 2 9.224202126033674 1.4127036094958183 4.292852397171618 0 0 1
230 2 10.957442919128464 0.5989366522156931 5.965582684958565 0 1 0
163 2 15.02155608271887 7.824377562529247 9.470202034040872 -1 0 0
765 2 11.899071672389478 4.477913655079209 1.296953737926983 0 0 0
880 2 13.20880373789743 4.8731987294944314 6.506464607853888 0 1 0
565 2 14.19093691280876 7.991350887094966 6.930114955468522 0 0 0
637 2 11.42528843272996 2.977529160328529 6.385436872347128 0 0 0
423 2 9.508940682412726 5.303909039700326 2.905872668392076 0 0 1
450 2 12.924757324837033 2.635729615204175 2.8102471146527934 0 1 0
256 2 11.83939094085264 26.72986713447552 3.8545828913916664 0 0 1
376 2 13.789588196988966 5.007203669951669 2.6562670010135565 0 0 0
406 2 11.770080854835362 4.803837269806391 8.12440548494507 0 0 0
494 2 9.61295442862085 4.659883750763944 7.335142397014481 0 1 0
448 2 14.96464812758326 1.0602571750552903 9.047802091849373 0 1 0
689 2 13.421761071379356 2.7939243522162167 7.630409930494922 0 1 0
209 2 13.911237679165415 6.745415492780191 4.602907865761871 0 0 0
432 2 12.794424055906346 0.5134549265950876 7.771209686338957 0 1 0
94 2 15.284740433021405 1.4783631363807561 6.915486849130605 1 1 0
337 2 17.62657165542288 1.680283875100225 8.599607527354006 0 0 0
793 2 15.943369135376255 5.2514938100351465 4.083982755746569 0 1 0
712 2 12.316524689070475 1.2423683507598478 0.8935397361585258 0 1 1
341 2 10.495491013391373 2.6584912282068704 8.538268594272896 1 0 1
566 2 12.591996528609274 3.6716951881969466 10.203884798008282 0 0 0
1 2 9.816417450738538 6.451553406060274 4.945301280000632 0 1 1
881 2 9.7395054360537 3.8134072489860276 4.756120272351076 0 0 1
666 1 19.801504298366414 26.576920523800663 2.5704678729342514 0 0 0
338 1 24.935526297611883 1.66474639185873 1.1295216951069398 0 1 0
896 1 23.68874473757316 4.560797223038948 1.783416116798153 -1 0 0
562 1 22.35923573708955 7.6733847431378965 1.809492059695121 0 0 1
314 2 19.599587211075814 2.3015411151551666 4.185600147680267 0 0 0
201 2 20.55916334723432 3.3430487509293636 7.808773001107721 0 0 0
258 2 22.192076306221207 7.531482273080375 7.227026527875846 0 0 0
702 1 19.688762804774708 25.79711875910991 5.29345055455164 0 0 0
219 1 18.374296806300737 8.205696311226811 1.6072474506634222 0 0 0
674 2 18.51824008179001 6.312176669626328 4.178086488934701 0 1 0
65 2 19.620128702532202 4.229954296763505 5.4957822096136315 0 0 0
497 2 18.39545925988612 6.506703652987938 6.626853931576512 0 0 0
837 1 22.628373298175546 0.5936969235178923 2.3622444322711162 0 1 0
261 2 23.850896868909118 7.8885375239592275 5.558090763966678 0 0 0
132 2 20.66271309570081 7.382623230152818 4.966107087745385 0 0 1
3 2 23.278310851550987 2.8204091854383773 4.666052440643726 -1 1 0
503 2 25.828582097019854 4.255970379457607 7.276608407614544 0 0 0
700 2 20.261336324785923 5.9855632464331165 8.541244536253583 0 1 0
354 2 22.856597332430436 8.047284625214175 9.249931721942206 0 0 1
568 2 22.0791119524475 9.48145281563201 5.2958082455730215 0 0 0
989 2 19.741180335135457 8.411034858906612 7.791795094451616 0 0 0
212 2 25.09083403148204 8.550848248610581 7.64077133192568 0 0 0
106 2 26.36515689280093 8.10243747094201 4.907102848167686 0 0 0
861 2 22.88096057969838 5.846581494354675 4.754036756270257 -1 1 0
35 2 23.720622772413368 5.682539210218206 6.999527770773159 -1 0 0
741 2 23.305987939166336 0.8782583830861721 6.761973096765976 0 0 0
138 2 21.221605134685706 2.0633539521604294 6.002270271267643 0 1 0
564 2 20.005779602414158 1.1726697758906997 8.081506354328067 0 0 0
19 1 21.908302995493482 2.8648858689014087 0.7427809183059533 0 1 0
159 2 23.36853357074466 3.307980116217339 7.368771305085672 0 1 -1
56 2 25.643361882307726 1.931028441590576 6.222407913476072 0 0 0
361 2 21.255250423422225 3.9377527605049134 3.7541280439167553 0 0 0
244 1 26.491845389267407 4.676218129557107 0.6456946119301183 -1 0 1
285 2 18.22548102836763 3.886274470282055 7.819516648610661 0 1 0
107 2 22.568651325111613 1.421297508759676 8.956793137131251 -1 0 0
523 2 25.36608455353452 1.8743222789605039 3.8911915085756426 0 0 0
270 2 24.959578573273046 6.5639853205972996 3.7389565951094577 0 0 0
665 2 25.28423374239408 26.708425775190165 7.987388256188348 0 -1 0
853 2 26.415283200787016 26.389844486821637 3.476301567487965 -1 -1 0
247 2 21.2347230678386 5.3681611378958545 6.540909474063229 0 0 0
85 1 19.908800734733557 5.310434966077729 1.4799479625496268 0 0 0
97 1 5.919287565149683 12.806422587190971 26.48727569535534 0 0 -1
962 1 2.9437385341346287 8.908557217886791 1.6375656042115396 0 0 1
764 1 8.01639622682842 11.415901126021964 2.985117671131532 0 0 0
680 1 5.405745304536186 13.00287713558828 2.7207177309157373 0 0 0
255 1 7.506669820384405 15.415338758503557 6.973532700857347 0 0 0
281 2 2.1958617907264637 16.901489740554577 4.943935882307552 0 0 0
603 1 2.380143398873964 14.470583665004156 3.1330338242740505 1 0 0
558 2 1.72275442379676 13.95599907811246 7.36716491253724 1 0 0
850 1 4.772724291102981 16.18664956387675 2.1154156742815644 0 0 0
856 1 4.860883500992679 10.21020957292715 4.232143570418494 0 0 0
475 1 1.8468482752534217 16.54693352177734 0.4015852242619547 0 -1 1
110 1 6.776772285168135 15.74116278196164 4.093880488377956 0 0 0
859 1 2.8692635900173453 11.533913858120068 2.6224799822709453 0 0 1
42 1 6.576033919710869 9.52079812820454 6.792263111463998 0 0 0
210 1 0.5973386832642328 10.466424912309172 1.2703880422560319 1 0 0
332 2 2.3649137948754344 9.648562437248913 6.371817947616979 0 0 0
37 1 4.343106946094766 14.009148954354307 5.148285160639027 0 0 0
690 1 4.349416660635893 11.568214794111798 7.249788309481962 0 0 0
472 1 3.794727506483949 14.228675971289475 0.35388091526198223 0 0 1
295 2 26.54756776988678 15.063245861812115 4.954428655104793 -1 -1 1
367 1 5.4414992090071435 10.497598285415533 1.4816701684409164 0 0 0
234 1 7.243867097456491 14.6453733229306 1.0990112860614074 0 0 0
701 2 2.173961875259742 7.726077457728471 4.800933661020343 1 0 0
567 2 2.579386438069081 16.082600797514612 7.061086724205459 1 0 1
537 1 7.411357577642685 12.16882313938026 8.30003079071325 0 0 1
28 1 6.676577334920729 12.24877456842752 5.370062677416409 0 0 0
190 2 0.2823055091645132 17.316057041055085 6.546409951705418 0 0 0
235 1 7.70970234103051 8.52700795132939 3.9561384252965275 0 0 0
640 2 1.682002813311399 12.290342450134771 5.609579301655702 1 0 0
807 1 9.271006232937285 10.836668829286719 6.5539244932427705 0 0 0
75 2 1.3156018068741082 7.560725446181933 7.074639746358618 0 0 0
187 2 1.1513559228394885 11.885315426458845 8.3333611532729 1 0 1
127 2 0.9502524118251638 10.426768212796336 4.455926315800955 1 0 0
355 2 18.531130533526476 9.060945624436975 5.276297454875485 0 0 0
293 1 8.804866277680867 17.873485451611447 3.442762387509973 0 0 0
854 1 16.038756301813823 14.314452670944595 0.7529661689802494 0 0 1
574 1 9.709322628351105 13.628508618454156 6.258529190677656 0 0 0
551 2 15.702962743047445 10.386341754932657 8.404780801161499 -1 0 0
14 1 10.856198512557283 12.148315903305345 8.7268686213817 0 0 0
829 1 13.04108393969705 9.533008445958949 4.135182809206491 0 1 0
938 1 12.809664287463256 16.396619284439634 4.964505842907623 0 0 0
803 1 11.728234701200341 10.493285138624154 1.6421909661595473 0 0 1
947 1 12.837281695394903 16.734220727480963 0.30439458760498905 0 0 0
312 1 12.618022337815562 11.691409944667612 6.620909372345673 0 0 0
985 1 11.092268323786893 12.409960689223855 3.6153073158233884 0 0 1
840 1 9.665409792945464 16.321775287175303 0.8591036837681258 0 0 1
353 1 17.479417658543486 15.353410578011434 8.168513177102033 0 0 0
656 1 13.697640449478392 13.722515150551919 4.52851842769678 0 0 0
357 1 12.154734416214922 14.533489252242724 7.159713103434179 0 0 0
553 1 15.576057682791467 13.51380821407864 7.100241787877064 0 0 0
276 1 9.611527910947553 16.271695557212894 5.643643634375471 0 0 0
805 1 14.451652525535364 11.753774299161057 2.289584965850957 0 0 0
923 1 16.299048799508505 13.339164660147231 3.8521281283099436 0 0 0
594 1 13.122015564485446 14.003899030488537 1.1016115982111025 0 0 1
156 1 16.227255124455077 11.519023956640522 0.15842420383925765 0 0 1
60 1 11.307042279129176 15.43581944499214 2.9400879958884745 0 0 0
978 1 15.032589223739098 8.403841594824684 2.1385143545063587 0 0 0
383 1 14.37462721123895 16.19563180225421 2.7552360874477024 0 0 1
738 1 8.888927292926915 14.062384252665154 3.4447586186726324 0 -1 1
84 1 15.281697570975608 10.803794014314283 5.349147487530782 0 0 0
992 1 16.42925900195267 16.293972732343086 5.381369991786323 0 0 0
452 1 10.313448610033774 13.307098166962522 0.9235762694472838 0 0 1
194 1 17.071724210915644 10.552930573492155 2.9417418123879204 0 0 1
713 1 17.299038781397474 16.07649842330208 2.4178208835499513 -1 0 0
21 2 16.712195356971282 8.254726128694202 7.259574254408194 0 0 0
147 1 10.24268298140138 9.502351425175048 4.343855987448884 0 0 0
714 2 0.26954953723158764 10.12234484304764 7.246402287372821 1 0 0
619 1 25.21191581866114 12.304360882599097 0.6073152765547054 0 0 1
384 1 18.58727516561002 13.216240309844082 1.8740067251644985 0 0 1
493 1 18.352719671144317 13.388969993107178 25.371395969765203 0 0 0
916 2 22.286044737952444 12.83764566162832 9.023484015851038 0 0 0
429 2 22.987069980780152 10.583052951594635 7.548892634807476 -1 0 0
417 1 21.01001473048046 13.326449332559267 0.4299610966559606 0 0 1
246 1 18.87784564038265 10.491761117513713 0.08825613196920676 0 0 1
692 2 24.22083535273209 14.041375953218424 4.822690892840794 0 0 1
576 1 25.843302545359137 15.325240322004973 1.2394830097516745 -1 0 1
911 1 18.4733404623421 12.115377104804425 5.047660055880671 0 0 0
890 1 21.89891787318668 18.229263479430404 9.045350394835351 0 0 0
313 2 25.077704798512958 16.351785907039325 8.808882033072871 -1 0 0
719 1 24.90292406009114 9.566317077127692 2.360675051989917 -1 0 0
158 2 25.96720532183608 14.637878608611066 7.312559295051534 0 -1 1
836 2 21.00983849980645 13.227339198113246 6.603837165807134 -1 1 0
474 2 17.915094997647902 10.401639719484665 7.720845169507092 0 0 0
213 2 19.117559232869603 12.350624826268112 8.233573237784618 0 0 0
245 1 20.74873091476142 15.974030622129302 1.9639611168794235 0 0 1
810 1 23.112253325374798 14.374876460529897 2.0896318525292386 0 0 1
123 1 23.603706733511753 17.03704606754241 1.08530317130136 0 0 0
108 2 26.58930924381777 12.980241545161002 3.5634808233342543 0 0 0
929 1 21.700502999530286 16.334840636317107 4.721376890612244 0 0 1
449 1 19.17245408322175 15.042070074072244 4.982658556739952 0 0 0
788 2 23.450073389736527 12.861034509862352 6.884881249864054 0 0 0
217 1 19.933608891435355 16.999667626036278 7.252063628610974 0 0 0
477 2 20.16966781740624 10.31767316055236 6.407263528104605 0 1 0
951 1 22.745884589672155 11.080824945986691 1.5899787031556536 0 0 0
139 1 20.97174902345804 12.976374254320431 3.4640933060030767 0 0 0
485 2 23.113677227217202 15.449430788755496 7.755020190096957 0 0 0
466 2 24.851491774178374 10.073912048408703 5.6072654652659875 0 0 0
233 2 24.550175471601673 17.454022253174752 6.497924953377437 -1 0 0
236 2 24.466194964303774 16.510097928896315 4.1172076877619235 0 0 1
15 2 25.55578825591992 12.29926046481382 5.654430281274531 -1 1 0
945 2 23.25010679673567 11.546943241585478 4.620427630035913 -1 0 0
92 1 20.3848563679083 10.22720886494042 2.797445982086156 0 0 0
722 2 8.509612209091571 25.582109648140822 2.5953881008198896 1 0 1
215 2 4.5990778603919535 17.58583031055747 5.397422260353736 0 0 0
776 2 6.08395290716097 19.11320303450076 3.6077990217387157 1 0 0
453 2 0.08614181031451405 17.14322172669521 3.6507654467007393 1 0 0
791 2 5.638787716319693 21.37097798143429 3.783684151377972 0 0 1
76 2 26.637672996947565 22.880576104187742 8.05050043734252 -1 0 0
718 2 3.9159399712388314 20.829108458099274 2.336546873467954 0 0 1
342 2 8.322280685269877 20.657334263833693 4.8697905313868395 1 0 0
657 2 5.838358988258465 26.155889312065526 7.135578589758048 0 -1 0
545 2 7.907346200979062 22.843782055323384 3.234808023747597 0 0 1
514 2 1.8428184275832766 19.562887525758786 1.704155582837459 0 0 0
162 2 2.1971124467183727 22.681629978082515 6.967214464861315 0 0 1
124 2 7.201496918361166 20.709347040201 1.891021247971744 0 -1 0
825 2 7.321317688673966 24.124035259052565 1.2172432423312847 1 0 1
371 2 0.9597923371406232 24.08345196054697 3.436921551842923 1 -1 0
610 2 4.4351659164587165 24.830594382743513 8.49995989117455 1 0 0
605 2 2.7970750259178736 23.82233237233776 4.6950485812455005 0 -1 0
638 2 0.40047127025452933 24.42544637222012 5.542733893784304 1 0 0
491 2 0.0054688289380244726 20.53624191528146 2.7069143938948206 0 0 1
918 1 7.1482828542726065 17.741267403006198 0.8811511923205098 0 0 0
893 2 6.8727260341915875 25.159201438086978 5.2874349616339735 0 -1 0
943 2 3.759290969852843 20.576272235719713 7.555524797752697 1 -1 0
430 2 8.368613949260812 22.35188541915525 0.38424286789910617 0 -1 0
786 2 1.372478709812531 19.15725265728618 4.590073278706375 0 0 0
725 2 4.973512272529312 25.059178438192237 1.1211593676314149 0 0 0
9 2 3.4394563490029473 18.572975107242925 3.559901646877892 0 0 0
137 2 6.6250134669959175 26.722611996681554 3.3476117864772257 1 -1 0
697 1 7.966187780572818 18.346264975142226 6.689742292089122 0 0 1
445 2 8.569794701628666 0.039973563886665175 6.256420158759018 0 1 1
489 2 8.55295968761782 21.522734383546716 7.155862326025848 1 -1 1
111 2 9.684447732689174 24.822674376103336 4.989406477301875 0 0 0
600 2 2.6961769838220726 18.701985629377518 6.829831446807986 0 -1 0
561 2 3.4387663792335093 20.32771519180477 5.138769731235704 0 0 1
231 2 0.25018672978366796 21.882385657715908 4.9421238270426935 1 -1 0
278 2 5.528291483716644 22.263563043487746 1.0439374852924526 0 -1 0
879 2 2.2070986970233286 23.8220629774002 8.97456281319076 1 -1 1
98 2 2.558183970874609 25.142579862411026 6.6709392209811185 0 0 0
214 2 6.203708074383177 23.01005567559041 7.618876203924014 0 -1 0
462 2 4.557436684222474 22.893807637000688 6.16369443935278 0 0 0
957 2 0.6931414975695451 20.755290194195556 6.963117681275178 0 -1 1
852 2 3.6804451864985936 23.096333139087054 2.534108798497651 1 -1 1
687 2 2.980105860439539 21.57010348224515 0.341623922501116 1 0 0
772 2 1.383673801834634 22.51484309635702 1.681371137976948 1 0 0
257 2 2.1008857519817736 21.673311439438415 3.7234972505800794 0 0 0
797 2 5.941710619634957 20.658072754018917 5.964461506260213 0 0 0
940 2 2.7470378216614733 25.422042305757884 2.791732842728423 0 -1 0
808 2 7.208583168169499 22.738670204482567 5.596267740813796 0 0 0
777 2 5.597642983470227 24.341005376659698 3.3906070521858958 0 -1 0
630 2 4.446517222346997 25.437229259286244 5.326436642102713 0 0 1
292 2 2.0475935036872626 0.06708239924233794 4.314115406745287 0 0 0
620 2 10.317667122688242 0.39018274852352375 8.920194466639336 0 1 0
785 1 15.986064046539866 23.17739954390423 6.346798485139087 0 0 1
961 1 18.114074727012635 21.434705901825907 1.038884630053617 0 0 0
768 1 12.68786231065114 20.86428194570922 7.989746781373965 0 0 0
207 1 15.198441089479882 20.820633463004604 1.9390988445136654 0 0 0
513 2 13.321831626738819 22.93130338626332 2.00730906707685 0 0 0
760 2 11.485047101212736 25.334139007153755 1.338081369409446 0 0 0
385 2 10.072322955122893 23.41923664173456 2.1577671430130123 0 0 1
315 1 16.009878199942982 23.609499777849322 0.9029296928923374 0 0 0
43 1 13.253979249354813 19.433321846468786 0.16073969851992317 0 0 0
10 2 12.72908083723987 23.65035389088507 26.530845100547932 0 0 -1
609 1 16.977689878218754 22.07232803262552 3.6319821465971485 0 0 0
53 1 11.794583373016561 17.351898205452752 7.7889674535919635 0 0 0
732 1 17.23799066839797 18.086817780770534 8.04959606821874 0 0 0
965 1 17.119539191909222 26.24200607073441 1.356302898102 0 0 0
5 2 16.700146141725 26.694805680886112 5.916049073309841 0 -1 0
160 2 11.83403477429673 21.520644533731016 3.2295254577025028 0 0 0
206 2 12.78694296684968 25.539408968411784 5.761362442495027 0 -1 0
830 1 14.343932793574686 18.437975928505928 6.588926314566807 0 0 0
790 2 11.19398501896228 25.3600141351674 7.29431090546671 0 -1 0
26 2 9.672023903997417 20.869742936347336 2.3624773420183605 0 0 0
469 1 9.854943352166504 19.023478454057926 26.4981979299286 0 0 0
467 2 13.1271588224638 23.986260619863828 7.956342613654841 0 0 0
290 2 10.375966613254558 23.00125696090272 7.618511363168168 0 0 1
72 1 15.583634621380215 17.679283164805206 0.32978686578502003 -1 0 0
935 2 13.655787165425275 25.867565262828172 2.1977715588147175 1 0 0
301 1 14.550686785866844 20.9402540866392 5.011691359510616 -1 -1 0
41 1 13.94361517478172 18.713629578481473 3.5597319555273224 0 0 0
532 1 11.172299862993313 19.126698226875256 5.752526203055181 0 0 0
116 1 16.751503930463915 18.761053907924147 3.010438673057526 0 0 0
483 2 14.83267449598946 26.139512446721415 4.952774022110848 0 0 1
973 2 14.221607878094519 23.930800703794475 4.079700135226214 0 0 0
924 1 11.489512539522606 18.545821874161895 2.248871645465377 0 0 0
141 2 11.202975752448973 21.840057211990292 0.805692307828851 0 0 0
547 1 17.002227937181875 19.667173252135978 5.793962542392348 0 0 0
239 2 10.232970906742233 0.44421340733505965 2.2027332831545254 0 1 1
774 2 11.70189015448993 24.384750573975886 3.73854735636385 0 0 0
676 2 12.157585345712805 23.268933598467072 5.65404005896815 0 0 1
496 2 10.094008849661611 22.203786305712487 4.987613486992626 0 -1 0
569 2 14.816143015178806 25.959515876422078 7.1920569123879075 0 -1 0
96 2 13.21802726334639 1.3950121497007877 5.335328460456684 -1 0 0
360 2 0.680716712008663 25.95899589405918 1.4235595981046538 1 -1 1
525 1 21.692942412438036 24.65293442212811 7.034752316283833 0 0 0
248 1 19.659438279999858 22.872761752325264 8.617639149451902 0 0 0
307 1 23.28830370095916 22.911912392817978 26.607632327345915 0 -1 0
387 1 19.713557130877323 23.69470783600723 3.2261417019347385 0 -1 1
172 1 22.521802026543682 22.652628428021803 2.7413122558423284 0 -1 0
683 1 22.3694451590097 19.636869788066402 5.341514944550228 -1 0 0
505 1 20.174920303428067 19.972948890039717 7.267684491752058 0 -1 0
928 1 23.74674523759742 20.479328378783077 0.8876850049170966 0 0 1
400 1 18.810967478294767 22.727134847237856 6.038783336233797 0 0 0
846 1 21.76708993492513 24.92023713924586 1.056392844249761 0 0 0
652 1 25.983540346969875 18.445494255151285 0.03633322547140945 0 0 1
271 1 19.658104285025036 20.51040385198667 3.8208557104374004 0 0 0
378 2 25.895670883127483 22.67167743133953 2.344413476265067 -1 -1 0
191 1 18.131758646108484 20.42928985296363 9.639689528871243 0 0 0
746 1 18.181230863263266 25.593575061704907 8.086427380926667 0 0 0
298 1 22.02362221635633 19.057032927238033 2.560387081311321 0 0 0
617 1 21.685125219217813 22.29222238918131 5.520333615823256 0 0 0
607 2 25.18648389403169 21.906460386569442 6.230160058400009 0 0 0
413 2 24.695433617374476 18.678760788972554 3.4494212349818056 0 0 1
52 1 17.323944510157826 24.9197882196561 3.550799810311205 0 0 0
781 1 22.55626362844449 25.13108312284255 4.176479276782864 0 -1 0
828 1 20.961901410789096 21.592442771096923 0.4412618048570587 0 0 0
419 1 21.26312779730707 20.818408167514896 10.018979699348607 0 0 0
866 2 24.844926633131376 21.177600426160232 4.035903337767232 0 -1 0
691 2 25.014889125591065 24.795267300476677 2.3467346146142227 0 -1 0
71 1 19.20712108693444 18.3239506944234 1.7035005577912257 0 0 1
799 2 25.155396243427017 23.892510311818388 4.574642993734391 0 -1 0
425 2 24.80403870064726 24.41275085215022 6.844456785198957 0 -1 0
437 1 19.107445100499284 24.69998841836754 0.5808907971682339 0 0 0
715 1 18.982630870291548 17.87295458045674 4.436348361379721 0 0 0
636 2 26.703829954327595 24.064974450417907 0.37400326685291563 -1 0 0
748 2 25.702160920106092 19.263819114812723 5.771518512219547 -1 0 1
362 2 25.100758684997622 26.361858919945252 5.522679067693816 0 0 0
390 2 8.313599665651225 5.40059065958467 11.772592257541039 0 0 0
851 1 6.804114083301003 3.3430505213624184 17.546167271252468 0 0 0
813 1 5.957673735493719 6.151114730644201 16.692430747037804 0 0 0
282 1 4.006952365927114 1.715436467876368 12.220170733871118 1 0 0
534 2 8.003023767161237 6.2777995254032275 8.74447749360368 1 0 0
442 2 6.3935298862426615 7.0150600618289545 10.881605246066567 0 1 0
780 1 7.851170809041571 9.440364753263196 12.324815652332319 0 0 0
303 2 0.17128983472064263 0.9440103448073393 9.216488163116242 1 0 0
726 2 26.742971975670336 3.4412854481236477 9.84231399770167 0 0 0
831 1 7.209465856560687 8.15031504281294 18.698890280545545 0 0 0
907 1 5.273893643276662 3.9176964708004687 14.926381146343857 1 0 0
991 1 6.422551924761235 6.8889198968734435 14.004294714613314 0 0 0
95 1 5.110284081494106 9.20524864518183 13.006072735063595 0 0 0
57 2 2.7553398137837397 9.401389078505415 9.043866983733057 0 0 0
762 1 0.8140943722235037 6.343575743457566 14.25347225811422 0 0 0
412 2 4.725428275042315 8.587574211292115 10.01831498674665 0 0 0
223 1 8.178007633058877 4.801373804569899 15.311713767075698 0 0 0
848 2 4.213510926901373 6.413870459646918 10.676430392359265 1 1 0
359 1 1.9725951469982883 8.111510978786113 12.282406189714962 1 0 0
294 1 4.0553277044106615 1.7206196774850941 17.449576703638677 0 0 0
838 1 2.862992637454669 9.248613154319408 15.069278219753915 1 0 0
681 2 0.18958015282883509 8.737630225053529 9.25793428712902 1 0 0
867 1 8.117260199917324 2.703662035852836 13.419172835569034 0 0 0
11 2 2.3357770258109585 2.468701021132524 9.845908386493532 1 0 0
152 1 2.3677102705486255 4.6818475713691825 16.188596001032067 1 0 0
229 2 2.126312540631866 7.132694086593052 9.293857757721831 1 0 0
88 1 2.521549933451806 4.352825736181402 12.2068511305905 1 0 0
410 1 6.120029809061523 1.3212496677419863 15.487741352670392 0 1 0
122 1 3.7234675774960095 6.356032349211238 14.244318618182946 0 1 0
684 1 3.358464407510724 7.215855686714642 17.61699351015608 0 0 0
855 1 2.6797988931423697 2.186912123173702 14.784236431957403 0 0 0
779 1 5.58011118123949 4.154064840544911 12.082074101465968 0 0 0
254 2 3.311377836523011 4.871971308766605 9.02116974665702 1 0 0
673 1 9.562886793872647 2.6208529481994036 16.39287089353336 0 1 -1
196 2 8.89508803167045 1.2735807213995347 10.601356134720971 0 0 0
90 2 12.632475516745664 0.936766923422784 13.845090560901397 0 0 0
199 2 10.802706395278223 8.584212156074265 12.708711564067611 0 0 0
650 2 15.230949255995444 6.566058733812972 13.642001101064471 -1 0 0
100 2 16.82904727178199 4.540720057215747 10.813381744621017 0 0 0
905 2 14.296474606952511 5.587000112004598 10.620554818414334 0 0 0
502 2 12.491314330196994 3.313310143571577 16.981160241981502 0 0 0
584 2 13.699029275835363 1.5587138098818933 15.769247191824398 0 0 0
381 2 11.08181687459532 5.287216342118087 15.760119425865549 0 0 0
488 2 12.583568980336414 7.540982433510254 9.658167900100802 0 0 0
99 2 15.057500113361089 3.3606960552829728 15.178528683177499 0 0 0
970 2 10.897087509350799 9.511496185026392 10.024337935675748 0 0 0
323 2 15.584768715976914 11.163716251550188 10.78883684503984 0 0 0
659 2 9.898359077203247 7.8842695244454255 15.039547244448197 0 1 0
171 2 14.787389876229396 7.652568911270545 17.025443448756015 0 0 1
83 2 17.883466278492982 4.446622844478882 14.68525711394407 0 1 1
972 2 16.39855568307281 7.0650405148034885 11.16966888765722 0 0 0
528 2 16.865407999259386 3.481914265074826 16.828220535028926 0 0 0
753 2 13.686487492175239 8.00580700082325 11.779584388435335 0 0 0
949 2 14.748667886736959 4.682883160460984 17.10245585791289 0 0 0
696 2 17.445242044860706 6.422306110493676 13.022655887915878 0 0 0
250 2 12.70951985227265 6.8037483364556754 13.590785327827952 0 1 0
888 2 16.14637529947016 1.4171779826219388 15.857633968381544 0 0 0
969 2 16.668491279078147 5.943871762663214 8.672393463446495 0 0 0
115 2 14.829283740427607 3.0603332608540836 11.20378865190862 0 0 0
401 2 12.87453979756084 3.4665919142776898 14.614861794113592 1 0 0
986 2 13.025000021618037 4.5856261347517995 12.469170390039581 0 1 1
195 2 13.670548645667804 6.384331313901312 15.541100538248926 0 0 0
582 2 16.330081996984845 5.846962239273585 15.847662917851219 -1 0 0
819 2 15.583586382977275 4.227992309400427 13.107837468972244 0 0 0
668 2 11.655695479658515 6.12994493173283 11.31743009136708 0 1 0
334 2 9.643607020559621 7.1702328627560945 10.598074069512634 0 0 0
625 2 9.782178213804997 6.472300271150925 12.88741810572023 0 1 0
146 2 12.615457312982286 2.3950306966317507 12.130403144066129 0 0 0
391 2 16.94374125981613 2.267821168404314 13.633529757666043 0 1 0
451 2 16.081426250757897 6.501470614945779 18.585302584947183 0 0 0
22 2 11.836885361480844 8.697573057907151 15.985901699602625 0 0 0
884 2 14.770457570539696 1.5616471173418496 13.50709925644676 0 0 0
2 2 10.722974945589904 4.224285710774267 13.375836681534421 0 0 -1
482 2 15.432389308145368 3.404798713549549 8.608574061960342 0 1 0
964 2 17.990538606639422 7.684011887253887 14.92601751624836 0 0 0
998 2 14.581771697266225 2.2872488562763835 17.796525819477942 0 0 0
728 2 13.283171875933114 26.559287308875717 11.591776826455824 0 -1 0
264 2 10.922052103417993 0.4047744229801229 11.838661597462655 1 0 0
731 1 11.082848740587949 0.26148750788984915 17.17309610810454 0 1 0
7 1 9.371236701624431 0.33673482787675324 14.731459069578 0 0 0
484 2 18.05684808102158 2.1604499683967826 10.931814376093152 0 0 0
422 2 10.403976168276682 3.1980827462105834 11.318026069229683 0 0 0
984 2 12.250687541734111 1.5083869215362202 9.98277286660848 0 0 0
891 2 18.447500802147243 6.95698941032728 17.13075747186259 0 0 0
441 1 25.50861275384446 1.0198714133760656 17.1259794734437 -1 0 0
351 2 24.684682454061853 4.612669875784356 10.020654550222725 0 0 1
306 2 18.945528555086653 4.7847679707307815 16.74146814847764 0 0 1
348 1 21.742532972106353 0.5042014091666898 15.980407516300268 0 0 0
599 1 23.511331128195863 3.1056456242984867 17.00053953329163 -1 0 0
876 2 18.482457788498284 2.2602602755720893 15.432052567503826 0 0 0
416 2 20.292474140363595 1.973413039753735 10.277612801044402 0 0 -1
606 2 24.05409710687962 4.020017987397823 12.276945795059447 0 0 0
89 2 22.147966474978965 5.1178837077598685 15.415345499551943 0 0 0
87 2 22.41764612130972 3.601656971381405 10.335503528896174 0 0 0
649 2 22.372033389235906 8.40415360543955 12.536127491696783 0 0 0
875 1 22.380906406955404 0.2884662884932452 11.84645271541059 -1 1 0
651 1 25.445860023808994 0.49330539474347607 11.971676537834643 -1 0 0
922 1 0.09607565548325875 3.125208612991258 13.185593645472059 1 0 0
977 2 25.763229298433586 8.028452208349774 11.375311686569734 0 0 0
498 2 17.632343275516078 8.383412495417657 9.562873708833207 0 0 0
736 2 20.00340015361649 5.583738171054772 14.431923749258159 0 0 0
643 2 21.018187606418056 5.588864638238438 10.996728735439486 0 0 0
812 2 18.62084402861921 6.183917740193268 10.615920480119987 0 1 0
68 1 24.05188310370086 1.5393921975456049 14.387260410217255 -1 0 0
682 2 20.515472956299856 8.084703478486471 10.115411696118018 -1 0 0
577 2 19.745848083793224 7.259519058992779 12.998259563536056 0 0 0
330 2 20.446756101615392 3.3282658886577634 14.904113350216566 0 0 0
317 2 19.298510192271735 1.5080969160315905 13.130869827257454 0 0 0
646 2 21.311187827135214 5.352703896979782 17.661989810955617 0 0 0
758 2 18.549083740157982 8.86846462494083 11.893419210164986 0 0 0
658 2 22.934910398927386 7.593058951398902 15.037585118824973 0 0 0
795 2 25.253991527806754 6.887042384126387 9.371708121877278 0 0 0
305 2 21.866057948444535 3.5141193052043693 13.086862229176557 0 0 0
783 2 20.643611674279157 7.374314761746545 16.070457900708266 0 0 0
364 2 0.1654175564132607 5.745038802635998 11.059831149202218 1 1 0
329 2 19.3238573546071 3.863546073190999 12.254922018726209 0 0 0
325 1 26.34034742891612 3.7865590224995866 16.12892968984168 0 0 -1
434 2 22.1549304683358 5.989789786826158 13.240413796680304 0 0 0
675 1 0.6245907310725969 8.014276549841203 16.929086963645155 1 0 0
227 2 23.639627179978156 6.6934234208700385 11.23216904791047 0 0 0
752 2 24.773862589858755 7.233580061788436 13.327570487496477 0 1 0
443 2 24.127350467938616 4.805732830369023 14.402384978980917 -1 0 0
527 2 24.958084237775644 6.653549843704378 16.044897591878673 0 0 0
318 2 19.558555694067703 4.059295013676608 9.724213366575771 0 0 0
872 2 24.493681143871992 2.321939590742712 9.572239984596521 0 0 0
546 2 22.612476106749096 5.6392781331177435 9.073947353520653 0 0 0
801 1 7.488335696447887 12.053839888768707 16.627336194976795 0 0 0
832 1 2.2793240996156263 12.40253204402495 14.612719601506512 0 0 0
205 2 26.729864275039215 11.403063580898683 10.636375254939443 0 0 0
8 1 2.6947677261036334 11.03401310253169 11.89561574931536 0 0 0
174 1 3.6734880883862364 16.03342382409444 10.066052579093896 0 0 0
667 1 8.095666382548155 18.81862337297759 17.834907618450053 0 0 0
404 1 25.814130449891497 16.351522747445316 12.608231331651568 0 0 0
614 1 7.947965381530693 9.708467671833864 9.518804160509864 0 0 0
910 1 7.242046804898056 9.43045244734721 15.309781128949318 0 0 0
869 1 7.96229279661275 17.395411162612696 9.481199144136365 0 0 0
967 1 4.946891669912532 11.244913421405773 14.908076288024265 0 0 0
587 1 26.75643093984835 11.214296884391194 16.68529797993419 -1 0 0
709 1 2.6330233906398948 17.78499109806068 17.11434965926552 1 0 0
238 1 5.0308125363259 14.190773585169367 8.06743776297755 0 0 0
20 1 1.7265595767198991 14.590383741954437 12.379666432724626 0 0 0
817 1 7.153171055915975 12.380355479750895 13.955689315511933 0 0 0
580 1 5.2043471359328715 9.586468078017635 17.46900529436457 0 0 0
352 1 7.160346036238819 15.300903899400257 13.738135077753407 0 1 0
509 1 8.709129473122914 12.080077956667452 11.055800559785375 0 0 0
136 2 26.348890317210017 13.62250095709458 9.39741771666793 0 0 0
773 1 8.12800741008809 15.600019467139006 16.51953865234468 0 0 0
974 1 0.3390496891443532 10.395396530903483 13.496208300653711 0 0 0
226 1 2.6085004519406336 15.21520125363868 15.378314224991687 1 0 0
550 2 5.415734510992141 11.280171830671692 10.515056804092486 1 0 0
633 2 0.809796885744399 15.626407632104304 9.078552057820936 1 0 0
80 1 4.266774764840692 16.212104834748423 13.192196656794607 0 0 0
114 1 5.573512559327051 17.028443638456892 15.967555305425563 0 0 0
296 1 5.314437540330664 17.546097915593204 8.499701973731748 0 0 0
350 1 4.813154069776053 13.31595812297643 12.700264923695677 0 0 0
431 1 6.406970432582374 14.728080802529194 10.832124111339118 0 0 0
698 1 2.999766294337456 13.403982290294568 10.301971594122595 1 0 0
405 1 5.406984342249524 14.107036235497311 15.77922822159189 0 0 0
310 1 8.874868201703565 17.544209210448397 14.336214999657182 0 0 0
983 1 9.21064787545473 14.920099919786743 11.834690204930569 0 0 0
727 1 13.679145082709503 17.064349423921495 15.603852187663396 0 0 0
321 2 12.609732878017613 10.248561968576634 11.6439293931765 0 0 0
804 1 11.60223708562887 15.03335216926057 13.845705336575561 0 0 0
398 2 17.971271691663137 10.783724961624953 10.141242205857411 0 0 0
78 1 13.674590839316457 17.389372324138954 12.251585372204334 0 0 0
176 2 13.000465944761554 9.445427717356266 14.038946350690374 0 0 0
860 2 14.453792206206094 9.913111450239144 16.289374940964834 0 0 0
834 1 16.271113736206544 17.41929811256426 14.098467657159157 0 0 0
180 2 15.303869704692332 8.73184002069251 14.369862619223207 0 0 0
677 1 9.947304216593148 11.31780512198008 14.318885140374338 0 0 0
960 2 15.800585463044365 11.301544914273155 15.131398369115454 0 0 0
438 2 16.744423992547837 12.33816130704622 12.89424300121775 0 0 0
950 1 15.131786181249925 12.907941516273917 17.560549488091397 0 0 0
512 1 12.623786734919467 12.552878044112683 15.015413009578163 0 0 0
131 1 12.550212307251831 14.5150977264738 17.35606863798169 1 0 0
465 2 14.450487382686845 11.007020916066699 13.086457858899756 0 0 0
858 1 9.95453116565558 13.83527652946235 15.637556490363291 0 0 0
59 1 11.888806407421093 11.78477484708 17.75941341429032 0 -1 0
721 1 15.513976328866915 15.771001271547577 17.291057390745586 0 0 0
841 1 14.781431372571985 14.60065903628683 14.631229360391997 0 0 0
742 2 16.253614640776735 9.369575445681809 12.28083265261246 -1 -1 0
382 1 14.039466723048973 13.86782563607214 11.873410661748167 0 0 1
55 1 14.434010849213514 15.509619011995415 8.87802627196555 0 0 0
356 2 17.13097952554223 12.901981670627126 10.668196521246887 0 0 0
535 1 11.305192654787446 12.834502588391839 12.107697325137297 0 0 0
380 1 10.509503627341143 16.751589079118332 16.63345480152468 0 0 0
926 1 11.973555361272805 15.355848578686293 10.049216411824787 0 0 0
204 1 10.51370966286205 17.41948681510603 11.618022313677368 0 -1 0
533 1 9.419751098788343 10.290718827522424 17.327026369357444 0 0 0
128 1 13.48991170639994 12.69915552930811 9.350088890845035 0 0 1
366 1 9.503396286741062 15.152606398065771 8.94680437433843 0 0 0
181 1 16.314685674535585 15.936924457181192 11.001704826637377 0 0 0
590 2 13.518686759947158 9.743225057585194 9.514943776938718 0 0 0
151 2 17.648761188381087 10.163018171281129 16.167478885222973 0 0 0
103 2 20.40684716771504 9.242891279028896 14.154636027203198 0 0 0
624 1 23.84665432864922 18.171177056709006 11.113250371520099 0 0 0
193 2 21.917346971100777 9.686500897893389 16.22638802865821 -1 0 0
263 1 19.144489427014243 17.1069423604498 13.63132776679252 0 0 0
331 2 17.698860811030546 14.297819718181671 13.554649823684104 0 0 0
821 1 21.217317024555225 16.27758241409564 15.109181780639316 0 0 0
705 1 24.216789571607432 15.938161056823978 15.098413665865674 -1 0 0
439 1 0.3222255418143518 17.013224922044245 15.058239716107634 0 0 0
69 2 18.292028076182216 10.371253926656726 13.792339427503238 0 0 -1
755 2 22.437404444270367 10.486681853310776 10.1963950598189 0 0 0
559 2 24.460105791581366 10.047106929015879 11.971659296444816 0 0 0
346 2 21.09396124479895 14.18163849810136 12.485530644649552 0 0 0
955 2 19.755783372033367 13.77187912710897 14.474639943838177 0 0 0
316 2 23.731178915823424 11.490501686340576 18.16777554197819 -1 -1 0
979 2 18.903088166793047 12.233030902777518 12.38667277388424 0 0 0
113 2 23.845178614689626 14.177446025452843 12.15831018226539 0 0 0
260 2 22.52937675230145 10.406305975926491 13.876904903285297 0 0 0
621 2 25.878462442537394 12.870442312188949 12.250156186098673 0 0 0
655 2 23.673783246132352 11.067790831805125 15.86013236324641 0 0 0
644 2 18.135228288355517 14.882943657829427 16.32812486153071 -1 0 0
200 1 25.26005323078548 14.154588935429246 17.554707483430782 -1 0 -1
538 2 17.717665255217206 12.457573044931966 15.091690682664183 0 0 0
778 2 24.70055770253779 9.188945987859716 14.600125012484815 -1 0 0
81 2 20.814454197659973 10.317189675749558 12.132373467992176 0 0 0
747 2 24.344288361798768 9.119595567941278 17.302428025250656 -1 0 0
129 2 22.160824029929802 15.14533754498251 10.635456628348493 0 1 0
372 2 24.109006519712608 14.145564034657466 9.611988313160085 0 0 1
93 1 22.43380484681111 15.658727496625612 17.81572091931072 0 0 0
6 2 22.53077003805541 12.015413685335844 12.104486787202081 -1 0 0
751 2 24.4966211987259 11.944551155601276 13.892595154933167 -1 0 0
118 2 25.068247724245094 11.737205752760431 8.276101330805982 0 0 0
203 2 24.505406386733974 12.212386045699683 10.652297870415378 -1 0 0
941 2 20.542789915291145 14.656219522470478 8.997384511518293 0 0 0
862 2 22.301548237195554 13.248550496817023 14.237028566332429 0 0 0
763 1 26.610955814766847 13.95850384681223 15.126503433809544 0 0 0
375 2 19.868968523321062 11.237772667030278 16.092407471141183 0 0 0
529 2 19.9341700718881 13.571945992677787 17.148373999407905 0 0 0
211 2 24.68145838599039 9.992900962094751 9.67792843648217 0 1 0
44 2 19.191520800163257 14.23676328376322 10.989371297896513 0 0 0
370 2 20.43343134455255 12.36905859531447 10.475824924633129 0 0 0
775 2 20.26953198005912 10.357716364117673 9.04498192305191 0 0 0
847 1 0.42814453250143586 22.530742299541917 13.342050979573948 1 0 0
126 2 4.558463304650875 25.841691460090853 10.73041871812548 0 0 0
863 1 3.7775872771239127 19.21628801609107 10.855721453449405 0 0 0
520 1 6.532123041826762 21.764464687239528 16.399383507055376 0 0 0
952 1 0.7153631366595107 19.76206822088958 14.971896158091212 1 -1 0
954 1 1.5863419804854622 17.47431422030525 12.404429881750447 0 0 0
208 1 6.094193853556096 19.425345336819927 14.46943875013682 0 0 0
369 2 2.46139479293808 26.663908021019765 8.690694361010612 1 -1 0
672 1 1.2796073097023695 20.294725999652783 11.841850410229668 0 0 0
79 2 6.330824699762069 23.805105038878644 9.913943976062665 0 0 0
409 1 8.742512088381895 22.119125273424398 10.226407645365972 0 0 0
912 1 1.848331245775029 24.519141536391086 14.531049998037702 1 0 0
671 1 1.915892598139262 26.67876569899039 16.78917877377576 0 -1 0
13 1 2.7308051098172363 23.77615942987594 11.881684199325605 0 -1 0
904 1 3.3874285352175812 18.778981622394042 14.350026639698063 0 0 0
420 1 7.161621189557579 24.98782264051141 15.508533870990513 0 -1 0
243 1 3.4663925812474257 21.621681327614972 13.54267477161943 0 0 0
343 1 1.7437977650467007 26.677650225927824 11.90438680563376 1 0 0
508 1 1.128365782788577 22.461732555782685 16.280256699629778 1 -1 -1
24 1 5.724532394716504 21.366072612783253 11.870495093711428 1 0 0
750 1 5.627554798926601 24.041860801102512 13.191540294302154 1 0 0
397 1 7.575736534726674 22.053845953231562 13.757143455493752 0 0 0
67 1 8.76137667517435 24.414498702190755 12.82386110227925 1 0 0
908 1 4.405845032951335 23.52518997345688 15.770453877208036 1 0 0
570 1 6.82593133792577 26.572151476190403 13.045491284366243 0 0 0
981 1 6.80684934025973 17.384562143210466 12.021665079616909 0 0 0
578 1 3.599048639725783 20.95029981645903 16.499442222091588 0 0 0
611 1 0.7496413573332402 18.588762536416 9.560027536934356 1 0 0
616 2 4.280507984982661 22.422137171211112 9.23738647111551 0 -1 0
541 1 6.82875817699657 20.292756245393736 9.279281056124532 0 0 0
717 2 7.542530393166101 26.140149126938642 9.88210233805234 1 0 0
823 1 3.9994139305131986 26.264157559042427 14.25910247395365 0 -1 0
32 2 8.326171811864134 24.495259445213705 7.624168624212982 0 0 0
326 1 9.570983418842149 23.10681819401933 15.57803720769259 0 0 0
175 2 0.349546852777058 25.214899400446814 8.10697587972333 1 0 1
277 2 1.8977486164810602 21.36971813058388 8.949430987139808 1 -1 0
663 1 18.029604412260888 18.216437148894336 16.219464112942187 0 0 0
815 1 16.824649716626976 25.91791951353652 13.557082848639379 0 0 0
178 1 12.277880578902751 19.582676202824413 10.666751895343014 1 0 0
189 1 13.883384959665491 20.588869950141415 12.735933406094015 0 0 0
117 1 11.84698682422728 18.835783392396504 13.920748085276884 0 0 0
444 1 16.43783747061295 22.058648574713565 11.768308818905963 0 0 0
827 1 14.128754177779014 23.697354562306625 12.521040027846974 0 0 0
481 1 15.746510791804678 22.38479049916281 14.738512111719544 0 -1 0
121 1 17.028689487678736 24.69268704060627 16.795395956814254 0 0 0
269 2 9.837470428838301 25.101568040866912 9.838207021425438 0 0 1
25 1 11.818180246776235 19.928655930685572 16.519930654594805 0 0 0
708 1 11.592002562552233 24.746452101066346 14.138606465433096 0 0 0
267 1 14.841020149293133 19.725206394791076 15.688264510281321 0 0 0
887 1 11.022787470444849 21.84939715673064 12.810181660665783 0 0 0
995 2 15.976732813824395 0.8037996775669523 11.235315131800641 0 1 0
679 1 17.749122463154222 20.593568833227152 13.886645756860021 0 0 0
822 1 11.584280249969009 22.69096563258996 10.237059933929787 0 0 0
289 1 14.68930297770567 18.175397415599097 9.634890793027827 0 0 0
782 1 8.893263835726811 20.170176639018724 15.232077596223847 0 0 0
802 1 16.823884492831183 23.249026000115457 8.9330015444136 0 0 0
273 1 9.959494192641424 19.481570724609995 8.959821107992449 0 0 0
166 1 14.34030924407427 22.178104771790252 10.0239944039005 0 0 0
629 1 8.957284462266953 19.95963627313267 12.212678259300786 0 0 0
516 2 14.925513603894972 25.680145267156668 9.591457451742647 0 0 0
140 1 14.409994489847836 24.978053056336552 15.113167751585172 0 0 0
735 1 12.183143601097164 24.5530328982794 16.973676875261344 0 -1 0
86 1 14.789539009897522 26.183264927911715 18.03545960164886 0 0 0
460 1 12.949446158796384 22.126896372631286 14.922503580289245 0 0 0
903 1 14.590508039137164 23.005697852884285 17.71928162542067 -1 -1 -1
678 1 16.221660930729687 19.150999883911282 11.753716834426392 0 0 1
792 1 15.669193866075235 20.610352452140056 7.975816803618928 0 0 0
999 2 12.374080115752594 25.714939370437737 9.555104211310967 0 0 0
4 1 17.409181998110142 21.723169984286233 17.178329979882264 0 -1 0
982 1 22.627455235015795 23.352368394979404 11.865077630501101 0 0 0
936 1 23.16028955622761 22.533382805430154 8.714760726499456 0 0 0
703 1 24.040115494506196 25.081434916663156 10.058027310834227 0 0 0
996 1 23.261868304409763 26.175745402581096 17.96350622844405 0 -1 0
135 1 21.14283205613118 25.30747281113561 9.910986086964602 0 0 0
308 1 20.056943459925158 25.2395467552848 13.245678928434094 0 0 0
937 1 21.835188415902337 24.43013856713404 16.13251271344572 0 0 0
220 1 25.504331178033503 20.898695432029324 16.636898937424405 -1 0 0
733 1 0.3090853432000244 0.6387880440490312 14.2782415433737 0 1 0
556 1 20.79253969300948 21.851814099530017 14.513149839541503 0 -1 0
604 1 22.541041798311877 21.073548899958514 17.111879370729596 -1 0 0
182 1 22.69715041979665 19.922077764367682 13.190139334856777 0 0 0
586 1 23.399847389885057 18.663552157420224 15.596436277672368 0 0 0
641 1 0.017900079353299958 24.44071363101585 11.131577736892972 1 -1 0
864 1 19.097885729435195 25.99979377698954 15.536334145406487 0 0 0
344 1 23.912262450520714 25.275304100860968 13.731325222053362 0 -1 0
917 1 19.856535756827654 19.53441998074988 12.244718454947598 0 0 0
283 1 25.72022398028848 25.193182599213948 15.754489233108675 -1 0 0
365 1 20.53843849512941 18.940260667161027 14.920116798250607 0 0 0
526 1 24.142517282695582 22.309739517141722 14.060359931240606 -1 -1 0
486 1 25.315816649392325 19.42112348548139 13.1924260819328 0 0 0
868 1 18.105703118715507 25.252782167572175 11.125577484661733 -1 0 0
272 1 22.9359224275437 18.865312578455498 18.837796302860987 0 0 0
284 1 19.42522129711425 22.521582402510692 11.865395173613754 0 -1 0
150 1 24.46531091034354 19.715215431304948 8.71675161534915 0 0 0
670 1 18.308164926872045 23.486540928779522 14.58372169687256 0 -1 0
109 1 25.3165047811413 21.81633879228024 11.258612043749372 0 0 0
225 1 21.80837083450616 17.35936815404526 12.696945485566589 -1 0 0
730 1 25.349157732008607 17.284175097999366 17.680300969613512 0 0 0
396 1 19.186974444777825 17.20930286798256 10.1821240728872 0 0 0
944 1 26.450552957772565 2.7251482626293915 23.913442155541652 -1 0 0
806 1 26.20139320433748 5.829867463717727 24.53756724103779 0 0 -1
787 2 5.195705596195475 0.5430048022040544 0.34277086167304005 0 0 0
589 1 8.041693825952283 9.146101388040979 21.799791210741358 0 0 0
704 1 0.019207424338965495 8.522564951212152 25.886010967025737 1 0 -1
521 1 7.598021320757936 8.734106080912627 24.630195960976874 0 0 0
392 1 5.503386470313904 8.245793845157351 26.47006167339978 0 0 0
232 1 1.3183097113785271 2.620902517511854 18.62924376568078 0 0 0
393 1 0.5893878749187765 5.431753549729901 18.33300352865213 1 0 0
919 2 3.350130498772627 1.9380357990787136 26.226385034090665 1 0 -1
492 2 7.80675817824339 3.727551968942074 20.732139582333012 0 0 0
1000 2 6.852673358308921 0.9696075932598303 25.051959873727846 0 0 0
515 2 6.011368105826668 2.947097433735855 26.75917802729065 0 0 0
759 1 4.7726273205629735 7.936111564443567 23.131697929666394 1 0 0
61 2 7.202779732892767 3.565908202138928 24.920972985969197 0 0 0
468 1 26.540271979266485 6.7638181809397775 21.445462681644113 -1 0 0
153 1 1.10823643464699 4.165937112516496 21.32906870622004 0 0 -1
900 2 2.7596234414561764 0.9102536562798946 23.891079482754893 0 1 0
623 1 3.3730123627461657 2.502822427026616 21.28155851807344 0 0 -1
645 1 4.670585268216349 5.7275607329775005 25.25898388504791 0 0 0
865 2 4.947438386333298 2.0823987715562517 24.403349867719186 0 1 -1
228 2 1.1170897753372255 2.0526889740937424 26.65568541099266 0 0 0
23 2 8.09123263842771 5.838082462007821 25.44434242703428 0 1 -1
766 1 2.0411740689811326 6.487217159257073 23.03593832477097 0 0 -1
669 2 6.911750871848715 2.471117331507953 22.531983096424494 0 1 -1
575 1 5.72843522469518 1.5874112646205403 19.794600736995736 0 0 0
585 1 3.4361771834765054 4.656697585769025 18.843292760362015 0 0 0
177 1 5.9474481942649975 5.9627365427959065 19.801319870766754 0 1 0
885 1 7.668250891908321 0.43633567794852696 17.636109921008106 0 0 0
769 1 2.3226979448127882 6.936512020919097 20.171749356192134 1 0 -1
275 1 4.417187204120925 5.034088597910791 22.417386614637664 0 0 0
555 1 2.3805451165128297 4.00492246049044 24.400889391593395 1 0 0
377 2 7.522467622480065 5.576331691956399 22.753167359017027 0 0 0
197 2 8.835550476066217 1.0258820402379352 22.054189195475693 0 0 -1
322 2 9.682086696308314 7.013580390832151 17.21539090177676 0 0 0
816 2 18.26386880296883 7.364954910278489 19.699989234164313 0 0 0
968 1 10.514830572214747 8.368780500111175 25.939631460324534 0 0 -1
990 2 17.24831984935339 8.907144501336692 18.16387236106675 0 1 0
878 1 16.437174410965294 8.893231433305608 25.93185221929984 0 0 -1
549 2 13.031692143598242 4.169271264014111 21.39822105418953 0 1 -1
288 2 13.898108690195658 4.2128793994473055 19.19364192296817 0 0 0
386 2 14.6474079736917 1.3701172957370413 0.6816176890453484 0 0 1
771 2 9.121345600989862 1.693340923663384 24.40893797509272 0 1 -1
563 2 13.911021232719987 6.973863877749176 19.906135501137218 0 0 0
971 2 16.152540231802014 8.18836010888078 20.279063871135882 0 0 0
495 1 16.740957173224224 0.5054709528713165 25.687053790336584 0 0 -1
988 2 11.676751003343144 1.893133065975845 23.897063027141666 0 0 0
433 2 8.927902194872033 5.715462534113786 19.046450732015572 0 0 0
820 2 12.504916874494187 6.208789097696971 17.562236328218603 0 0 0
333 2 14.227497993527688 1.8691360212769714 22.994192381756335 1 0 0
693 2 9.332733635275915 6.286727311570791 21.316060548704563 0 0 0
894 2 14.308027022753933 1.7930038568386273 20.170462237512144 0 0 0
499 2 10.448388055764108 3.5331606071927784 20.871635889941523 0 1 0
70 2 9.026467953241722 3.554299699920079 22.8132161436594 0 0 -1
874 2 16.279474116479125 3.1436887382357526 19.457742284976504 0 1 0
46 2 10.406315497766077 7.580684901538866 19.238079193996416 0 0 0
695 2 14.362234747696771 5.82185568673724 22.49230294478795 0 1 0
339 1 13.599298490762672 6.8083417409243 0.22113058094961102 0 1 0
16 2 9.602924255514022 3.8916865043176188 25.36168900303392 0 0 0
756 2 15.899110335139696 5.428240580951199 20.617950839767172 0 0 0
811 2 13.705692850118368 3.898030077061114 24.503472808383968 0 1 0
901 1 13.129626279168384 7.7967499675415874 24.234960666947515 0 1 -1
892 2 11.6224748303522 5.12622476426174 25.271041437290773 0 1 -1
517 2 9.269706512068241 1.9769170638229439 19.47418004741638 0 1 0
898 1 16.64775040734648 3.346848109621659 25.59542411405226 0 0 -1
539 2 13.47859817369833 1.1188915127075283 25.471566367099097 0 1 0
770 1 17.70019081815852 1.8849615312961354 23.07514426972844 0 0 -1
36 2 11.55249805005675 6.161846677041698 21.12814906950168 0 0 0
142 2 10.638922546503442 4.3885901710576976 18.45553060941914 0 0 0
818 2 11.959780893178444 2.497480926619166 19.070323919763922 1 0 0
688 2 11.45748881209038 3.9918527542048685 23.079895774494478 0 1 -1
661 2 10.060839363161723 5.9444807195052825 23.791242302950813 0 1 -1
613 2 15.342608063389273 3.380303322735536 21.695461954777794 0 0 0
262 1 15.968124507121264 6.127357698097233 24.984464099846726 0 0 0
871 2 13.972699193737766 3.6551255021123326 0.3488785636856946 1 0 0
169 1 17.98748844654774 5.104629447027215 23.102274885419575 0 0 0
143 2 11.845229437813916 2.901430366700717 26.075821315643243 0 1 -1
933 2 9.636496961731178 5.570314366410054 0.4713908204268672 0 1 1
51 1 24.45372121999338 5.702384879141474 19.23539331272167 0 0 -1
328 1 18.66744380782518 2.4470946291142566 0.8700782705800162 0 0 0
461 1 23.279855781768283 2.2530357683082576 22.432684318147064 -1 0 0
222 1 24.15166034445978 3.7327359136617364 25.711359416226884 -1 0 -1
408 1 21.679200025195232 5.549060850447561 26.023968782530474 -1 0 0
631 1 24.543870906781407 8.605209305379137 20.32405900774369 -1 0 0
34 1 22.649556438706906 1.3048655443837123 25.138732625440706 -1 0 0
734 1 25.569829866469586 2.8409892579848197 19.434085060499886 0 1 -1
427 1 24.661889768423805 4.757459625994053 21.989116377810657 -1 0 0
739 1 20.086762630166234 5.370004250406916 21.034169308642554 0 0 0
463 1 22.768357384998257 6.967511675553988 21.48921760649514 0 0 0
12 1 24.6199211550193 0.28633712082240265 20.48182240979693 0 1 0
794 1 21.867910488673203 1.0363984590857673 19.994140827690735 0 1 0
259 1 24.58717242836179 7.04127611647314 0.3321001953987171 0 0 0
716 1 23.633477441060265 6.985633090161656 24.40369831097883 0 0 0
454 1 18.80130981174038 6.610056996867867 25.799915316411873 0 1 -1
873 1 19.311553015683536 2.8001448976613847 20.775005281847406 0 0 0
198 1 21.22486136396161 8.786893458959485 26.132657257209363 0 0 -1
480 1 20.709754249024662 6.781675221496732 23.546335908382613 0 0 0
389 1 20.31194861197984 2.287156828737236 18.012314932721367 0 1 0
134 1 18.11805685014614 8.197555375941896 23.20359705804948 0 0 0
542 1 20.24188154765217 0.34504356960855254 26.411684288705576 0 0 0
320 1 0.6352654912998789 1.198441676174996 21.449631471196493 0 0 0
184 2 22.33587059074021 7.524754071302226 17.442822515973024 0 0 0
654 1 17.887046595505936 0.5685297921153846 18.14999038159896 0 0 0
959 2 17.876259015002624 4.893157038291063 18.90354833535088 0 0 0
601 2 20.52245524015556 7.096815265844824 18.82980159082227 0 0 0
426 1 25.278171526765878 0.44800475908569837 23.554465688127284 -1 0 0
74 1 19.8304892384202 3.357832507504174 25.126814408542266 0 0 0
927 1 22.341490671252753 3.8253396980990804 20.33947228040592 0 0 -1
447 1 21.98624339573686 4.472255193080961 23.344274024753176 -1 0 -1
761 1 5.705891069658697 17.956297777835058 23.29540153340621 0 0 0
883 1 2.252417053532196 9.373708670045954 22.026507218421244 1 0 0
304 1 6.506778425057963 16.74697297387989 19.236158233917543 0 0 0
710 1 1.9633653618383629 14.563484197236864 20.904063212296276 0 0 0
583 1 4.6567595834479745 12.286177268588714 17.783984743665286 0 0 0
849 1 3.02500998191363 11.547973496296978 26.375163176836537 0 0 -1
932 1 5.514093848697732 11.38909539392462 21.748972432358197 0 0 0
335 1 0.974039533155747 13.388757693257983 0.2360188242750727 1 0 1
446 1 1.156135595841974 15.668321170115306 18.329536134642417 0 0 0
798 1 2.6805049142867055 9.03226948642229 25.07096824155 0 0 -1
627 1 1.8430583984919595 13.15214291414376 17.473320717280682 0 0 0
511 1 3.72383424713908 16.714983736655718 25.026668107547856 0 0 0
870 1 2.879038332410234 11.832103568892576 23.05442353078993 0 0 -1
597 1 6.457040906209852 16.102002437427807 25.284938774667435 0 0 -1
424 1 3.736911151982037 16.083028122265205 22.299911649211886 0 0 0
767 1 2.6051232448933064 11.945477436033542 20.123622159185025 0 0 0
358 1 5.212837834511592 13.52498306701727 23.840574838044077 0 0 -1
897 1 4.703412368496958 14.004507709334106 20.612849048003437 0 0 0
165 1 8.32668484797674 13.139107713180929 21.23452300636477 0 0 0
757 1 2.4570328088108635 14.077715596037455 24.567410243810883 0 0 -1
479 1 4.8622056087484555 8.55989678081404 20.451252173540606 0 0 0
185 1 4.110219751726768 15.322284967150473 18.022851456090528 0 0 0
47 1 5.421959302780303 10.631440606610848 24.57164161541369 0 0 0
540 1 7.130336870225687 15.700830299059868 22.493363234285457 0 0 0
368 1 26.47377325625412 15.28490556057939 25.142358889262173 0 0 0
789 1 8.23028328431043 11.55609484328695 23.70569076881774 0 0 -1
706 1 6.933833358154072 10.987583104458174 19.25642484934026 0 0 0
530 1 8.790979827893723 14.022574460450029 25.206675589483424 0 0 0
280 1 9.277979089133346 16.132185883183162 19.60186019273981 0 0 0
319 1 6.846590854477719 13.799547938461409 18.832209846882847 0 0 0
814 1 0.740144640615376 16.49396909334894 22.659820859964928 0 0 0
253 1 8.203379760591268 11.06521243953919 26.646577082687198 0 0 0
374 1 8.578014178022952 17.605380435658184 24.2741268026331 0 0 0
349 1 2.4504568055172995 10.028426362488005 17.800585623044032 1 0 0
598 1 0.4700563499998589 11.299218155240732 25.022357261447183 1 0 0
743 1 9.644094748292716 13.333159136119239 18.725714613859424 0 0 0
500 1 16.4177297176337 15.130535168481734 22.860042479646427 0 0 0
552 2 12.474617070696448 8.831831219992548 21.275235112348213 0 0 0
899 1 10.13711891298283 15.469772186931182 22.39446942409735 1 0 0
149 2 12.37984409495484 8.45328275164583 18.54951826311829 0 0 0
17 1 14.685865314626577 15.825912082740546 24.852723758079666 0 0 0
909 1 11.75651952453679 14.904236900832164 24.70033278378124 0 0 -1
179 2 14.778311442908443 9.247276275597763 18.836468824680804 0 1 0
309 1 13.162628669507992 10.875665917095779 23.845743642127545 0 0 -1
595 1 12.239765805879708 17.295644532975064 19.185805436215983 0 0 0
877 1 18.016736868954546 12.129197655218835 18.980184556473063 0 0 0
302 1 16.06087149875233 12.062156923734753 23.762949824398905 0 0 0
632 1 11.026851812312184 11.373101093325426 25.679210141654824 0 0 0
464 1 10.018543788403893 10.696257067034932 20.30755720186883 0 0 -1
29 1 15.872311937021733 11.85701085970137 20.840149877746676 0 0 0
39 1 14.864735966007903 14.65531383373071 20.1846225178755 0 0 0
164 1 13.379527895161695 9.608303516438445 26.463848713023978 0 0 0
455 1 15.388079837608093 9.292473152862375 22.949849016147326 0 0 0
237 1 18.80802206280397 17.733012531865338 23.743835112733542 0 0 0
889 1 10.882429280688084 12.740143258093173 23.04177726786406 0 0 -1
639 1 13.52943378798871 16.44310368147925 21.988985087597907 0 0 0
63 1 11.85558367482456 14.591169141757195 20.110142677879963 0 0 0
956 1 13.828625530187843 13.501718816807141 22.75474968122574 0 0 0
242 1 14.251700451182678 13.224716196252004 25.589375726550582 0 0 0
963 1 10.311321875488316 9.42726259360773 23.330692956263803 0 0 0
796 1 13.002291290310453 11.633200185183908 20.440965832260947 0 0 0
980 1 17.59508628352099 15.220565261191268 19.262268595616487 0 0 -1
436 2 19.85433454023143 9.21025578260861 17.98293937840555 0 0 0
45 1 0.20577873413073683 11.21679767370307 22.248385441392738 0 0 0
925 1 21.611612906945673 16.83059071938193 23.01492829761625 0 0 0
915 1 0.3108229842585263 9.57212601733734 19.618609316285617 0 0 0
548 2 21.238252059506166 11.633309461600676 18.471329083138695 0 0 0
77 1 18.08934583232629 10.318175701136616 21.174132064648493 0 0 0
133 1 18.26942241081495 13.043372891445825 22.13723695695434 0 0 0
299 1 17.93481202401647 16.170137242316926 26.23751050724801 0 0 -1
91 1 21.22434638825028 15.877874057244751 25.748847621106165 0 0 0
167 1 21.36326732725211 11.908587325346586 24.661403571999333 0 0 0
101 1 23.58406179291084 13.980372213201392 20.21077259200423 -1 0 0
62 1 26.331031054808392 12.6523295217782 19.848303387184185 0 0 0
653 1 19.85969470229728 14.798612417040587 23.480748788646352 0 0 0
347 2 22.089108762416043 13.103229391412237 16.596218977377298 -1 0 0
504 1 18.7071884833406 10.94668883181744 24.058551154603315 0 0 0
411 1 24.052886060750243 9.960811445648568 26.082576772625497 0 0 -1
402 1 26.26036784561559 13.730168313195282 22.60229716865444 -1 0 0
844 1 24.55359152139484 12.254424183940191 24.214988627757563 0 0 0
435 1 25.81430560378191 15.661004492803437 20.350831841052013 -1 0 0
784 1 24.725375813227338 16.25906116338038 22.957883868957914 -1 0 0
596 2 22.250122391733854 9.47055356626618 18.659888110897594 0 0 0
186 1 20.393554349611207 8.808790989699375 21.383971644120873 0 0 -1
170 1 19.972446084808873 16.85066703909545 18.10469211323743 0 0 0
707 1 23.138422940426935 16.790636414505 20.490422094783437 -1 0 0
403 1 18.6903271742044 16.676428956466378 21.341499461399014 0 0 0
268 1 22.510767709207435 9.458940077154276 23.163114858369283 0 0 0
48 1 25.897627339730736 8.881980966506593 23.114326879693163 -1 0 0
363 1 24.011582440477863 14.320330955802627 25.919733940168328 0 0 0
628 1 24.106751214671363 11.052481747898492 21.27504589943839 0 0 0
581 1 22.726822421118953 14.085486804965994 23.151565988689885 0 0 0
490 1 20.88682431138186 14.5322091662593 20.073943015946668 0 0 0
379 1 21.180094833528642 11.801596976331833 21.578429204227568 0 0 0
105 1 23.461994668328714 18.12767501832007 24.995481954589945 -1 0 0
421 1 4.695916948327235 19.425640161911716 20.960242035880476 0 0 0
913 2 3.917142392905443 23.439464525512687 25.603257811738573 1 0 0
934 1 2.178999325243693 21.28525706066536 20.57049457480525 0 0 0
458 1 4.4079888071815425 22.063425242808133 22.069518021516707 0 0 0
130 1 2.396706327029668 18.912101413656227 22.691399446572802 0 0 0
902 1 2.281901330366387 17.506594859814896 20.032340986580092 0 0 0
40 1 7.286567126224755 23.44248932763022 21.77608498748757 0 0 0
82 1 7.665277292536856 25.81393968840369 20.30366002395015 0 -1 0
618 1 1.879742221821687 22.11993108300032 23.537616269377136 1 0 0
119 2 7.467384998265495 25.822778479524576 23.699013919296263 0 0 -1
522 1 7.8222273372916655 18.60482230494437 21.56364498914283 0 0 0
64 1 4.908153585262569 24.57369035035712 20.370227672062878 0 -1 0
274 1 6.795757805936395 23.888216887837014 18.26297665505774 0 0 -1
506 1 0.5736100267596008 19.734351153449566 18.596607229012996 0 0 0
173 1 4.444054721144351 21.892602548691315 18.91504479961726 0 0 0
845 2 4.572202960848935 24.60459971598882 23.695077076524303 0 -1 0
102 2 8.806625636901483 25.91267455374789 26.13299043346201 0 0 0
112 1 26.604494307756575 25.132449423043443 22.009365971701445 -1 -1 -1
744 2 2.5342388880785127 24.807542583716927 0.36833130929410457 0 0 0
946 2 2.1121000364670834 25.11684610355946 24.05057261809326 1 0 -1
800 1 7.024058271687425 21.0618299746015 19.893037141208996 0 0 0
373 2 8.451059757852283 23.76671639102018 24.931151242549145 0 0 -1
327 1 5.087153615579284 19.06002342116407 18.02888798916641 0 0 0
543 1 1.9844526862081069 19.04705804627907 25.504251026300434 0 0 -1
251 1 9.534780514539039 24.791689771951162 18.323465976697403 0 0 0
647 2 3.877914153080371 26.155585258634485 25.591871673081258 0 -1 -1
49 1 2.735703712093439 0.13112988641521373 19.644890792405732 0 0 0
835 2 5.386449888961493 0.2689242564722872 22.78218427225964 0 1 -1
418 2 0.9989571678627659 26.303548772961733 25.827568160036385 0 -1 -1
560 1 4.834727586835332 25.83297853333331 17.61288782725726 0 -1 0
345 2 6.330713277751751 25.317862013224957 25.804408117559603 0 -1 -1
265 2 6.400939955160895 22.6530112546856 25.632522045004688 0 0 -1
33 1 6.790348369153931 19.79955040640057 25.525430471646054 0 0 -1
930 1 2.4008242436224574 24.23272587018753 21.176176766199916 0 0 0
399 1 6.757302720051655 20.89330570430748 22.898821462399383 0 0 0
31 1 2.7713052050501448 24.074175137333288 18.061179772149746 0 0 0
554 1 4.248556863184554 20.41696677847003 24.471730678349203 0 0 0
218 1 4.629207509599739 18.569186281699345 0.1615352711226515 0 0 1
519 1 10.746877484872929 24.433077499498147 20.881791643014235 0 -1 0
942 2 9.772665044126096 26.0341870384567 23.715407761522147 0 -1 0
642 1 11.299023181964937 23.329787154806723 23.56419284269115 0 0 -1
536 1 13.528708766988801 22.307495454631 21.621810561835005 0 -1 0
50 1 15.845995095673752 26.06097402308055 23.227276969770458 0 -1 -1
634 2 10.37390906110152 23.7576104774055 26.44090471143679 0 0 -1
839 1 16.41013074379506 18.450495241528987 21.69532774056625 0 0 -1
456 1 15.36319773958624 24.311647050292486 20.542109118855223 0 0 0
626 1 13.657780492580093 20.26779698646076 18.645063021416917 0 0 0
394 2 13.95773090095456 25.77446642967049 26.507430396389964 0 0 -1
987 2 11.676090285801628 26.39367205492373 25.627427702884365 0 0 -1
340 1 17.136691295952215 23.26109760070129 22.586247161790414 0 0 -1
30 1 16.896453820484606 24.382826855551304 25.183549929902515 0 0 -1
557 2 12.12442736722216 1.951609823794743 21.460695914738668 0 1 -1
507 1 10.572546683587976 19.509738100888782 19.36530856593411 0 0 -1
939 1 12.929468397016723 20.885332725794836 24.159681258706588 0 0 0
478 1 10.844427049584311 18.468785742386128 22.099259606736886 0 0 0
572 1 12.868008653404075 25.923695845939967 22.353947399557857 0 -1 0
518 1 14.314694065161962 23.48036075708682 24.043950573406114 0 0 0
544 1 11.663748398120445 22.28889593497511 19.06062718579957 0 0 0
809 1 16.73120573982746 26.647505431530494 20.582337875445063 0 0 -1
266 1 16.087280381696573 21.17047490172441 19.648299994070314 0 0 0
976 1 15.217034349245557 18.370562486790988 24.503077581133617 0 0 0
18 1 15.535896845272553 21.429855806288934 25.80486067135288 0 0 0
608 1 12.159619589262178 17.730053473924777 24.4456825186115 0 0 0
524 1 13.69124593980657 19.122717438398492 21.408613337365235 0 0 0
948 1 12.262894300315985 25.96895844763536 19.47485731045199 0 0 0
311 1 9.127909320424731 20.95461112689924 24.207721070161707 0 0 0
833 1 10.32842194594815 21.39278472858106 21.54988018313511 0 0 0
252 1 9.01740595946271 21.49728157491754 17.867182452559636 0 -1 0
664 1 15.416906976570159 20.739413471657432 22.944172414102926 0 0 -1
66 1 15.051085489569934 17.695022416987204 19.1284153195477 0 0 0
155 1 21.12005911699332 18.79053670145772 26.519384210192875 0 0 0
711 1 24.656553086935393 23.466446092566674 17.5772463823952 -1 -1 0
73 1 25.94332553939474 18.47559007931086 20.888653075683802 -1 0 0
154 1 22.493747329384444 25.700493090794648 22.271755034072914 -1 -1 0
440 1 19.88304999893033 19.723929659440003 17.62506001197856 0 -1 -1
648 1 26.136189327363937 19.14094963438611 23.848849785531964 -1 0 0
920 1 26.74151452218909 21.154856044737304 26.070940279182047 0 0 -1
953 1 0.14831214873414797 22.61275967793172 19.000063293296268 0 -1 -1
300 1 24.16035145821382 25.740416512953907 26.007150283678445 0 -1 -1
414 1 26.261555632570087 21.554984791946023 21.790681951806178 -1 0 0
168 1 19.088429242694648 25.89281405387529 24.168928553498343 0 -1 0
388 1 0.06666093871039536 25.45530992829592 19.11504406563901 0 -1 0
993 1 20.071146700069878 25.5819008144447 18.142991944733183 0 -1 0
882 1 18.958861261227405 22.18287843232962 24.99186993407682 0 -1 -1
287 1 25.888376307525615 23.308943499909805 24.117556600077908 0 -1 0
997 1 20.36030321468033 23.102709019718077 22.010292186476853 0 0 -1
510 1 24.66147435386246 23.6184723497255 20.506726234811154 -1 0 0
38 1 24.9052166855372 20.829546526271542 19.257979004990297 -1 0 0
240 1 23.0237574548489 22.81680344276043 22.795169849217196 0 -1 0
622 1 21.089231107975834 20.491546058006204 23.959990696010365 0 0 0
571 1 20.59251975970487 1.371214761071328 23.32941167623981 -1 0 0
694 1 18.752552578157974 21.390810693905927 20.10321432005889 0 -1 -1
745 1 21.907953484756312 24.15928518356562 19.628284643635123 0 0 0
685 1 23.982560061441397 20.78831331771462 24.67713792857518 -1 0 0
241 1 21.222488434963065 24.238278529771954 25.10710336966823 0 -1 -1
192 1 19.90308643536953 22.846809708334632 17.5473018580071 0 0 0
120 1 18.38442135645152 20.505868972452216 22.69717353013686 0 0 0
612 1 22.247080296854744 21.422041647136776 20.18336992132617 0 0 0
125 1 19.55748630535979 26.349346033658325 21.20723618841291 0 0 -1
531 1 23.552129400747425 19.403683998484556 22.054680886857216 0 0 -1
958 1 17.72045185963195 18.65212835761431 19.2028793245852 0 0 0
723 1 20.402484159832916 19.269097116684893 20.9292720770892 0 -1 0
415 1 18.0408397704679 19.61887358898112 25.64903662655072 0 0 0
699 1 18.07447990767182 24.316984515160232 19.616745662262364 0 0 0

Velocities

457 0.00287824813168694 0.0018361182678263616 -0.0008839703523253846
737 -0.0004939644013979763 0.0022471490860585773 -0.0009507669100960401
914 -0.005616184433073295 -0.0008198533478558492 -0.0016183458446634687
297 -0.0009831252790413873 0.0008338658078162896 0.0013739343129334262
145 -0.001774071883820165 -0.0011085993674916788 -0.0026956142877819457
573 0.002212697632558652 0.002325264590607076 0.0005363974552887223
470 -0.0010565613179951924 -0.0005751937265223391 -0.0020657863753235925
635 -0.0001233359635186187 -0.0009174529228325784 -0.0017106999621602221
749 -0.003325750000877045 -3.06238394772767e-05 0.0013895182571720508
579 0.0017770760486383738 0.0014057537389128506 -0.002851097817043872
104 0.0019852186086991323 0.0021726341053798525 0.002382759210048177
291 -0.0019620692957646618 -0.0008434999779364489 0.002542820157104425
729 0.001201157313857799 0.004092028784893652 -0.0006967755267536104
487 0.00021033218957332083 -4.6059559344957634e-05 -0.0010611673982749827
188 0.002233239151848598 0.0005485972139175696 0.0022510392007113827
144 -0.0018247696430423223 -2.354836969080049e-05 -0.002436457682240926
740 -0.001020656070440397 -0.004334727028986566 0.0001911741962522613
501 -5.4278563812443284e-05 -0.0008306643734300179 -0.0004634340250805418
148 1.8514297663829059e-06 0.0013593002386096912 0.001110620222078997
324 -0.001761791785157254 0.003478926905777578 0.000842468799994246
966 -0.0008655286954162467 0.0010084096916165653 0.003820705904615893
221 -0.0027060769578565926 0.0024981154519363316 -0.0016752959018546283
279 -0.002572830402227264 -5.3583583686737003e-05 0.0014858782799381898
286 -0.002103089793175988 -0.0011232729662641668 0.0015766298826143193
395 0.0032741181761232396 -0.002799660809914967 0.0005518925793905941
476 -0.0006300676129166031 0.001491627840856606 0.001560165072778953
895 0.0007565757924160533 -0.001617618326434834 -0.0005993275715809255
931 -0.001797843599052887 0.0005102286114689952 -0.0011172597794844113
216 -0.0014338680247427918 0.0003915445912060877 0.0008518629095283415
588 0.00186615761540355 -0.0019386460664503804 -0.0012475374973602274
591 -0.00011379950964769698 0.0020584400351909764 0.0010087656347508467
249 0.002439800992797392 -0.00034786899379698073 0.002730050662520269
202 -0.00040186827907911035 -0.002152241159671955 -0.0015342908410753229
615 -9.843068596086048e-05 0.0008361545962697835 -0.0025825614926104244
336 -0.0006780331800905682 -0.0033583743684368196 -0.0007550625902174602
724 0.0010960951998901232 0.0016406975776525324 0.00023324859490110166
975 0.002716584740978242 0.003020000594616187 -0.00194755878216451
157 0.002734199308156546 0.0033393311810475967 -0.005100935923943419
826 0.0010250673756011695 0.0006927411895533717 0.0009709721378463017
592 0.0005163737667156492 0.0011211845490881603 -0.0012899574398858595
754 0.001547803588614396 0.001629629747914567 0.0031517918830210765
602 0.000994168582877993 0.004916093069922831 0.00478421344048654
994 0.0014435857445961777 -0.0021398525497627213 0.005687577661557893
58 -0.001214619911185176 0.002408457709900472 0.00209890529899006
183 0.0010460037878824331 -0.002885613034374048 0.001304102350135393
824 0.0022895543928181405 -5.211397113892602e-05 0.0013904301297469632
161 -0.0024263889350249904 -0.0007396147427102134 0.0005169646289791594
459 -0.002495117672982472 -0.000337448707855973 -0.0015421298410384582
471 -0.0013101852483912422 0.001572054709484761 -0.002093514208429866
27 -0.002360950567461523 0.0004809305813778425 0.0009079090264158443
224 0.004145812668356355 0.002513660639484137 -0.002405167941576158
842 -0.0014176006407294005 -0.002645818246708405 -0.0021712910638745993
720 -0.001883655427590492 -0.0001333271620481154 0.003979206369477878
660 -0.0016008993754990893 -0.0007863035047225218 0.0001649422059195035
921 -0.00035689254389423454 -0.0008236618396383212 0.0017838545443083372
428 0.0011693092362142121 -0.003028455249443731 -0.0025561802937925904
686 0.0025284603262309526 0.0008691075440158874 -0.003329836467831876
662 0.0020578076030196954 -0.0015254131120491917 -0.0026501824837950228
857 -0.001014354047479144 -0.003899476143554022 0.00036463051867816017
843 0.00014036603415269822 0.0035525865559690177 0.004358974148259054
407 0.0018005012499671604 0.00017298380622533612 -0.00036865824777678944
886 0.0008815740675906833 -0.0014681907172321067 -0.003378819218178001
593 -7.283857428313558e-05 0.0019083891622151455 0.0010163384851555673
54 0.004610686497958406 -0.0034170128377136177 -0.0024273202351149546
473 0.0009197461247667294 0.002574821370944757 0.002889524418112274
906 -6.619314428359794e-05 0.003074370379112597 0.0015374599747297062
230 -0.0021844328810750194 -0.0034675607281404877 -0.0006568178114172392
163 -0.006028480936817056 0.0012189249554674145 -0.0001366311785568893
765 -0.004132948479854498 -0.0011099773057535003 -0.0006514399117636604
880 -0.0008388576214689153 -0.0010226811492123366 -0.00178775343320812
565 -0.002988141835493636 -0.00248647416088082 -0.0011254805416582919
637 0.0006870032850114378 0.0016243471985967653 -0.0008660435719168525
423 0.0015007707281831178 -0.00039652928653790057 0.002027972656090884
450 -0.00018085206083498867 -0.0038865548130809207 -0.0024173292360042562
256 0.0009195604038675898 -0.005387212176811673 0.004819868328481953
376 -0.0007947614801098518 -0.0016306615893173124 -0.00046650646101276214
406 0.0010757849302247926 0.0031476908604810548 0.003949697015436324
494 -0.0055629994470620244 0.0020725613239319534 0.0005496115723226266
448 -0.0018162764097837273 0.002187100625810816 0.0017697854792555782
689 0.0006919532424605674 -0.0013207907100308404 0.0012718039391629295
209 0.0006638130432494488 -0.004361779577593757 -0.0002838660377390062
432 0.0008577632201300914 -0.001794925451901203 6.416218254640921e-05
94 0.001055979714541096 0.0013399893961517936 0.001773409422570245
337 -0.0036940818965463594 0.0003308100998988845 0.002380370547600818
793 -0.0012444796907211705 -0.0013879170960159198 -0.001173504916692301
712 0.005109849854970757 -0.0015045816748511854 -0.00113261328571488
341 -9.864541932049651e-05 0.0050459663685759595 0.0005622318197394591
566 -0.0021252264067465275 0.0005688294299046817 -0.004272729333150269
1 -0.002170795219012951 0.004692408478698703 -0.0030191598892567026
881 -0.0017929587309045312 0.002344320976760445 6.479883306954577e-05
666 0.00045451989752070057 0.00021593323062500672 0.002643536539800316
338 0.004460550497107492 -2.4685673539828774e-05 -0.0015559716362745528
896 0.006977967650648125 -0.0003600645811715816 0.0006570927938275003
562 -0.0021289567704946178 -0.001629450114320586 0.004178045330891332
314 0.00213734557266351 -0.0030590687951359066 -0.0006145064010198407
201 -0.001974474603456486 -0.005052980218499211 -0.00414619295089685
258 0.0011235347350395369 -0.000733720786021527 -9.811491146290621e-05
702 -0.0009895184238513264 -0.000604100626572329 0.004010710578465327
219 -0.0002144247352730957 -0.00270019156969698 -0.001695963527192448
674 0.0026445421686902026 -0.0041505389502747275 -3.727499778162355e-05
65 0.00019845832482671724 -0.0022576910212719127 0.0006603590448837713
497 -0.0034642431042775056 0.0008515494375119989 0.001500601231285718
837 -0.002194992867379228 -0.0012096117941247295 0.0013041353184218734
261 0.0005604929186652619 -0.0056624792941325315 0.004662078885245435
132 0.0010260934596079939 -0.0019341133395233863 -0.0007194177954543198
3 0.002724914805369176 0.0025509499012679256 -0.003186523956754088
503 0.0011010278409398922 -0.003102562285330148 0.0024158211986977565
700 1.5706935188824365e-05 0.0009789322467935956 0.0017087822397714835
354 0.0007262578924303037 0.001260860595580309 0.002716146958795372
568 0.0024040866465863714 0.004310502824539788 0.0015365711874722047
989 -0.0040612579807916965 -0.0030924403268776392 -0.0009599911439807308
212 0.0010385960420428067 0.002058743756456126 0.0010656295858029337
106 0.0018840754012052893 0.0017836187837726412 0.0007465208679459126
861 -0.00558642110897086 0.0033989654271087137 0.0003389937248708903
35 -1.8398260218782658e-05 0.0018082854088254472 0.0008205943591156218
741 -0.0036981186994292045 0.00020731778744946698 0.0008367184155064197
138 0.0004228048523048273 0.0020314228228517496 0.001251473555559138
564 -0.0016665297539656234 -0.0009003248523207633 0.0015160385865780684
19 -0.002526988597858863 0.002714196882964002 0.0024998963713151355
159 0.0021585997764942094 0.0009616736266176609 -0.003302677905613661
56 0.001667589412054315 -0.0011330782667143895 0.0005082113292126481
361 0.0015137574652088893 0.004440124647332757 -0.0019174612190820902
244 0.0031590853062826744 -0.0007272036728191194 -0.0034504562640321427
285 0.002725645949150029 0.001254449510761459 0.0008473124579431839
107 0.0005025541305026316 0.0007366597617348324 -0.0016227914380663399
523 -0.0016663419070869663 -0.0009291975006914874 0.0029396077628742563
270 0.0007550607011902175 0.001039053050145879 -0.0011804021860891422
665 0.0021981884817363884 -0.0021302119834403013 0.005477224279856648
853 0.001980631898680042 -0.0037672191491690986 -0.0012604283909235868
247 -0.00031141298095236817 -0.004168254001720803 0.0031281940164974123
85 0.00316781041799579 -0.0010614044583678846 -0.0029696955639773224
97 0.0019379628052950282 0.0003781876201030647 -0.0019236572235156151
962 0.0043171284479795345 0.001137457247728714 -0.003474161002003672
764 0.0032518516067081235 -0.002573044896259904 -0.003371713233189989
680 -0.0029441554901748026 0.0031348470785446067 0.0005551968816707727
255 -0.0031693446151161257 -0.0004905103478703792 -0.0006769657263403506
281 -0.0012432811268446693 -0.004249300650079144 -0.002105673782493082
603 0.001954269057301616 -0.003846759626561171 0.00469355409748647
558 -0.0021530173560177146 -0.003162103764727627 -2.8204308237921454e-05
850 2.2741675450037903e-05 -0.0029195342213005635 -3.239359872376915e-05
856 0.00349978142011143 0.001211672760857811 -0.003977869241294863
475 0.00025783686968617 -0.0014361093917409132 -0.0007234468182412394
110 0.0006580728880953103 0.0015177588137042304 0.0011583028581771228
859 0.004348182923555288 0.00010431490135755671 -0.003876835329350226
42 -0.0022314511538439573 0.0013410211161388602 -0.003394940419232042
210 -0.005107338576345899 0.002611929516874102 0.004107562846677489
332 0.004281532533159035 0.0003232515880135776 0.001172386816356998
37 0.00016240282384220398 0.0003302635662033502 -0.0036852046471792443
690 -0.0024173397170745296 -0.002944109629886534 -0.0002667434339136521
472 -0.0033395448827629078 0.0002249614897268897 0.0007071776067514213
295 -1.0900355244926013e-05 -0.00034250894469273663 0.0006148872359198871
367 -0.0005476669668795056 0.0007500956479945562 0.00033627161750955664
234 -0.002401069052882465 -0.0016684049622513503 0.0019946792450513495
701 -0.0013532870308504863 -0.001440964178818553 -0.0037008782183772936
567 -0.0004974705741507179 -0.0035834564452438605 0.0006938955146038024
537 0.0017224150585030897 -0.0003493969689470717 0.0007643335164251419
28 -0.003682463469333221 -0.0023371749166966344 0.0005515247360249351
190 -0.0022994291774413086 -0.0027320128348304737 -0.00016657462618944186
235 -0.0011436111368796976 0.001539553602025862 0.0027793461088029786
640 -0.00034891808901973015 -0.0033410005194919996 0.001845048026321413
807 0.0005056104376905186 -0.0039007204540819703 0.0024426226018009548
75 -0.000737874787698664 -0.0016541150729191165 -0.0027722677297325493
187 -0.001065680268348545 -0.0006977234740155371 0.000530150994870316
127 -0.00016785007515372356 -0.0034875328611559207 -0.002240599392270238
355 0.0009353586474452735 0.0026901480683267478 -4.987932646997263e-05
293 -0.000756218906455 -0.0022521153977562267 0.0019986015244330565
854 0.000883760713779864 0.0005885145855891849 -0.005193983903373353
574 0.004894751881069194 -0.0008392088869239402 0.00045043659440511033
551 -0.0019120155667558202 -0.0034795021902781676 8.332717906470424e-05
14 0.00270985624156328 0.0024547651683816604 -0.002462699527842688
829 0.0008586498133833208 -0.002415300080445658 -0.0028451612463081116
938 0.0029485067815157914 0.0002999791403907772 -0.0026856190725533693
803 0.0036780756968287504 -0.001104602654747791 0.0026665194306276286
947 0.0012356350487580947 -0.0003734581826633575 -0.0016674137553588267
312 0.00581092628384099 0.0032268160481677207 0.00014967481425169269
985 0.0028180327626412204 0.0018977049415830859 0.0007252853781095849
840 -0.0018474477486663471 -0.0029165524906546872 0.004211162881579484
353 0.0004526424831781759 0.0015457501177270686 0.0005030703507161023
656 0.0023723814200646396 -0.001859258467911001 0.0014968088133938888
357 -0.002185565934098132 0.004452219273171687 0.0022606065687772207
553 -0.0003264484841389554 -0.00014969744362553584 0.0006199576822487186
276 0.002107172882310484 0.00018628203991989155 0.002358666303488429
805 0.00014247617732752793 -0.0020199680085309767 -0.0003909513947780162
923 -0.00016027383045764363 -0.0005739007189661907 -2.738303525627278e-05
594 0.0016738698368803555 0.0008237816120094325 0.0031868921847985304
156 -0.0020540062303163868 0.001698070442378444 6.546816014678951e-05
60 0.0015755729476834039 -0.0008163780858749712 0.0041290067715298575
978 0.0023040169135345153 -0.001119738519209041 0.0017484772058297792
383 0.002391448740806688 -0.0010854219501638287 -0.00035036960319507733
738 -0.003144246928632304 -0.0018032437870838225 -0.0015372275235636763
84 1.6215943090366072e-05 0.0012610465063398319 -0.0002485269711470129
992 0.0003894920322504874 -0.0025531580095001466 -0.0005811167001725512
452 -0.0021721836354769916 -0.0013830950571792934 -0.0014695331983109751
194 -0.0007104207112156056 -0.0013991893533326 -0.00044202444751205314
713 -0.001184760220744316 0.005232774869028982 0.0015833982903655079
21 0.00012679092402559627 0.002320749246715157 0.0019471858742210358
147 -0.00026541750261445515 -0.003410703617769247 -0.00473673161340748
714 -0.0007688834784604217 0.0011301365609750617 0.0024716315302291954
619 -0.005507731979787671 -0.0034790334542773066 0.0015926843920900382
384 -0.002624881962045183 -0.0008246490963081752 -0.0013317856645490586
493 -0.0018895206461813521 0.0010528976249220418 0.0006208444126391506
916 0.002416061927100618 -0.0002998476943222807 0.004276099068276046
429 0.0014051053242131587 0.0032178163531501403 0.00020924761260096838
417 -0.0009703496096549189 0.0017032766785886086 -0.0020400339155366132
246 -0.0033600445063842297 0.0009998265958784138 -0.00107263008723178
692 -0.003010387518256408 0.0010241658746831615 -0.0028859354633113455
576 0.0019494145506073763 0.0035152358561035377 -0.0028028582432045117
911 0.002211431212949821 -0.002210842498205814 -0.002741778617097703
890 -0.00621047451057672 0.00044977909664218186 -0.0004120630113531754
313 0.0006154603373123669 0.0018246888782667804 -0.0012176535768914597
719 0.0015366772496321504 0.0028457365840643795 0.0013910659227833056
158 -0.002279927983253227 0.0007728592993897034 0.0003362451194300513
836 -0.0009579556402033522 0.0024536774719846775 -0.000647686286859835
474 -0.001940761829479157 -0.000687504368948797 -0.0031121389412075927
213 -0.0007658636263102853 -0.003096592061784408 6.209957797195388e-05
245 -5.4992363535670484e-05 0.0026730558475850435 0.0016327495227745638
810 -0.0006429397786618645 0.004157312346432868 -0.002900308745743655
123 0.002291897292777125 -0.002406537962181704 -0.00038541733178539293
108 -0.00025542046458274393 -0.0021054622907008278 -0.0011751676961986913
929 0.0009489027262555237 0.0027561386323959203 -3.242615568415765e-06
449 -0.0003682433860997234 -0.0005945619988026456 0.0002101385494685579
788 -0.0020520991051700657 -0.0008217253899376766 0.0019831211239542553
217 0.0013584067843588365 -0.0005270781518826724 -0.0020555719422027893
477 -0.0016537163506051466 0.0006419155808163277 -0.0008280271030728424
951 -0.0018042893092695585 -0.002016595822588174 -0.004781103098313802
139 -0.006480517238580362 0.0022191384234833147 -0.0013457520247963548
485 0.00027439535577083844 0.0006276904265155973 0.0027667204765748593
466 -0.005009928889433657 -0.002096448736511079 -0.002769442194950502
233 -0.001360323880206281 0.0012299576911376112 0.002276996559163143
236 -0.0007749505205086639 -0.0022030711722356216 0.00495606543699382
15 0.0012378554141079545 0.003426034605033261 -0.0027667126344256224
945 -0.00026471699619280654 1.751020917101029e-06 -0.0038132185183634717
92 0.0026129860351403727 -0.002547246849417068 -0.00012118279497671859
722 0.0016158819185134784 -0.001519843803961822 0.0013652486137542856
215 0.00011267089768210446 -0.0034920485809605915 -0.0016455018029597666
776 0.0011639918582072423 0.002651806116368703 -0.0031612018849111237
453 -0.0010252481476246825 0.000560025533122258 -0.00037403082464110163
791 0.0020526118730642222 0.0012334118487088727 0.0005821888853958918
76 0.0022795136972295358 0.004797198368122757 0.0005492851336516204
718 -0.0024384553270979724 0.00029524341790214664 -0.0032472208225061494
342 -0.0011404427499352662 0.0012440709276001418 0.002046564722943259
657 -0.0041101761416014095 0.004065293230319274 0.00042073871485944967
545 -0.0014479937625755408 -0.0020852040119831426 -0.0012870023541459615
514 0.00016430658375270668 0.0043113621094418445 0.00017900617875713775
162 -0.0027851606470483503 0.002167814826567556 -0.0011800436846787362
124 -0.00049219006835558 0.0015020703877825679 0.00031739918376802527
825 0.00026656939777137636 0.0031213648550065536 0.0037359031248887036
371 -0.0015550121271252638 -0.0022918499144197503 0.004364381416152961
610 0.00043436626050187495 0.0008653671509679126 0.002288793108283597
605 -0.00184591745404037 -0.004967378343347598 0.0016603178197500614
638 -0.001721441309974432 0.00028832784954222396 0.0013447068571362537
491 0.0020062767335645632 -0.0009053220743164732 0.0044661114505156595
918 0.000791132680108506 -0.003368628109136894 -0.0011503802349961377
893 -0.004671831425773274 -0.0013480829067952717 -0.0004986681448163248
943 3.0421670215359782e-05 -0.00026573728366546134 0.00040506487920419107
430 0.0002907360742768827 -0.0023727565111681596 -0.00022749919411623406
786 0.006279564458839697 0.00031692400647415693 0.0009429203063579339
725 -0.00013197760384351387 -0.0014553986015506354 0.0014871226337568161
9 -0.0041319093227972165 0.0007499395029763483 -0.0021127088843962073
137 0.004332797893406061 0.000739063521391372 0.004376039928213618
697 -0.00027436761136931766 -0.0006875865558518149 0.0009550014192711014
445 0.0010115801477385766 -0.0007944878378180912 0.001407369738798761
489 -0.0003905871223390114 -0.0005166396583306531 -0.0034193126561022414
111 -0.0005855286714755735 -0.0005151957891217342 -0.0038124010239958457
600 0.001503417368902625 -0.0023767430234392577 0.00016214024734666368
561 0.0032354755012327196 -0.0008222805163835528 -0.000887237835897444
231 0.0009872417516474847 0.0014500653911225002 -0.0021273340682054316
278 -0.0017391824763420042 0.0004059137408465548 0.00012181937613111357
879 0.0022284381288258963 -0.0004247840220858443 0.00027536140524238404
98 0.0005779372820270844 0.0010283255563548104 -0.00023524980553955182
214 -0.0005285486228899756 -0.0023316205165121104 0.0002476499296764331
462 0.0027981517283174125 -0.002567852116104491 -0.00017175574567973047
957 0.0008566392648318212 0.0038985883967046614 -0.0005990624324038374
852 0.001817470671465303 0.004230228665225522 -0.0007422223833968614
687 0.0010262072672114115 0.0002559548843236466 -0.0010750381768935935
772 0.0032600660537284182 0.0035357161692142836 0.000820783260238389
257 -1.3545063051303124e-05 0.0017162304008753312 -0.0010253358969751253
797 -0.0009485226955727647 -0.0014992048110051496 -0.0016531389884973918
940 0.002536176847210929 0.002181799501898588 0.0015497474928404561
808 0.00047614395156968665 0.003125046410177756 0.0011039205979801005
777 -0.0019025882920820686 0.002779459443715135 -0.00011041728833239488
630 0.0002726075746491497 0.0009609267758021937 -0.005341497257483551
292 -0.0007468764774918264 0.0034554389474082043 0.0037195248021046163
620 -0.0011431705651024692 0.0018653145079574611 -0.00024956876880039653
785 -0.0028045300030355978 9.212380049739612e-05 -0.000587018652731395
961 -0.0004888954721469614 -0.0009110339178070518 -0.0019489698962477182
768 0.001225421464070673 -0.004397479487100011 0.0005421336825881364
207 0.002510777411153302 0.0017652338226079017 -0.0030366765022576715
513 0.0005154534877142973 -0.003181843031809635 0.0012369998518318842
760 -0.0013028309153682595 0.004024952658432196 0.003345160497534785
385 0.0014664259404145372 -0.002366285592020567 -2.671261407164048e-05
315 0.00034344741020860936 0.0011767546180304381 -0.0002709143267746388
43 -0.0015465468780125854 0.004104950002418529 -0.0016581291593568864
10 -0.001597801072673622 0.0021204821295614917 -0.0031197225418579085
609 -0.0010580847414122217 -0.002564681734404106 -0.0016844723779915424
53 0.004439666482129768 0.0009788453336446925 -0.0022823187155925394
732 -4.129451887296852e-05 -0.0029324342849687984 -0.00033089136232490997
965 0.00128127034996235 -0.006517980758131957 -7.882451498001375e-05
5 -0.0011037067067912526 0.000808396084142834 -0.0009185844518502552
160 0.0020808710649004914 -0.003704598320531538 -0.00026569211795005016
206 0.0035433814842333678 0.0020265073108294697 -0.0012371120157142995
830 0.0023173206975485926 0.005246887602996389 0.0007866393831759256
790 -0.0013618649626130563 -0.0011019310448156443 0.0006844483968815892
26 -0.002938647106856973 0.00039733378135433994 0.0006133345965695193
469 0.0001844463705383907 -0.0004695599934835849 -0.0003662574378243447
467 -0.001737779639917311 0.0020847586286779373 0.0012049968744561727
290 -0.0006680612880387742 0.0009588424797359082 0.0005919770599299268
72 0.004519189148285963 0.000533451570166639 0.002321710570472451
935 0.005053611857273258 -0.002206877136422639 0.0008362523458791843
301 0.0012770629860754553 0.002210461917680043 0.00018523371516850724
41 0.0015638984387969497 0.0027038044405041806 0.0016623517830345264
532 0.0021128505970835184 0.0008853095751281517 0.0006703280766375475
116 0.0018093533694220733 -0.000891613820906421 0.0035105403842031735
483 -0.0041406007881538065 -6.0425383159249356e-05 -0.001137720202401736
973 -0.0009732255381258453 0.003758790564513911 -0.0015958253996249626
924 -0.0003030812268261236 -0.0008158215873068604 0.004058233670540671
141 -0.0005569065214930197 0.002043560964402692 0.002393048415541062
547 -0.0034802539704940887 -0.0009762120608361693 0.001990685525189669
239 0.0013866254200852143 0.002304735012510459 0.0009143266025402414
774 0.00032134010961040185 0.002283531963280774 -0.004159018613426979
676 -0.002645966961604297 -0.0017691990673652013 -0.003800296364508801
496 0.0010061387379218792 0.00026218212888019695 -0.0031033155290832487
569 -0.0005464131036255907 -0.0017278496920823197 -0.0009281687820735153
96 -0.00144923373056158 -0.000680075636748775 -0.0023638902341477177
360 0.001692734760653972 0.0010468736626111524 0.004725963396306139
525 -3.656530345814692e-05 -0.0030811030477415897 -0.00135218014732549
248 0.0003966180809518555 -0.0017325785947742668 0.001741577966147028
307 -0.0005499305369423743 -0.00016580716102108996 0.000609823778269075
387 -0.0013248632634661227 0.0016938374113733637 0.000823042390260756
172 0.0033514945004292584 -0.0011443617302332666 -0.0021129365714962654
683 -0.0008119074267779302 -0.0005242111805663094 -0.0031257094816571646
505 0.0009650126304611335 0.0017522097845050456 0.002828812430467619
928 0.0012026861514434625 7.608526467415136e-05 0.00199774404689576
400 0.0012349239262336666 -0.0030105028177542857 0.003002917603033482
846 0.0024676843525582477 0.00011652060155740445 -0.0003198531352229549
652 -0.00237335176460623 -0.0008872722521567975 0.001043121609279001
271 -0.0001137463946650085 0.0021560025890140465 0.001738574618212674
378 0.0007496768012368593 -0.002145517721264103 -0.0031546227337461183
191 2.993040897804269e-05 -0.0008416557594436611 -0.005044792745871387
746 -0.005418132225598856 -0.00396745158898168 -0.0031246013364514577
298 -0.0009148923037375273 0.00043402957618130314 0.000532676994489297
617 -0.005660045222727807 0.0029754882346070648 -0.00486222584050089
607 0.0004759164709713781 -0.00041767625638978865 0.0015340045941577064
413 -0.0026242832446646542 -0.0016398571314761457 0.00017656708612011837
52 0.0007566823704190847 -0.0003108222548989887 -0.0005975477491553128
781 0.0031642333098193085 0.0022473629646438155 0.0005547827847257124
828 0.002845685865948827 -0.0019715857932445045 0.00027807709612581976
419 -0.0016050029663030507 -0.002517159861897377 -0.002931367381266996
866 0.00279963493071047 -0.0004245074399528114 -0.000541945008651797
691 -0.0007138060999137118 -0.0023055283029861083 -0.0009864455303139963
71 -0.0031349110103151747 -0.002122696743381684 -0.0019201781073139158
799 0.0027211625942991967 -0.0017166708845640353 -0.004608136083457287
425 8.587688038628075e-05 0.0005091889839195679 -0.003372271674094528
437 -0.0018181370524748704 0.0049334526011601525 -0.003022833213255716
715 -0.005736902598842163 0.002076663198100525 0.00166794700325337
636 0.0030371537143849326 0.0029391523499714706 0.004752637412675527
748 -0.00034261677486571506 0.004274903933973213 0.0006794354744969926
362 -0.00168831190154642 0.003263525041550848 0.00236509874396355
390 0.0017598133498895698 -0.002021110980756633 -0.0004708069979005503
851 -0.0010601404724258571 0.000768000005917457 -0.00162003009987779
813 0.0037365886077456597 0.0024489514977477276 0.004766867715597878
282 0.002275213989599436 0.0007480551068266626 0.000729932299019618
534 0.002793651641361774 -5.847790223930714e-05 0.0012423995454161154
442 -0.0031064939432345314 0.0020378256948638484 0.002722342267217297
780 -0.0006317124765933465 0.0007239778458255625 0.005190109095795204
303 0.0030336485122685413 -0.0009010630010163887 0.0019339299592757682
726 0.0018027281547167574 -0.0014030376799784284 -0.0038042472483229297
831 0.0016673064699931342 0.0030725699626034226 0.0039014187253862565
907 3.137658812908131e-05 0.0012822038008504606 -0.0006416928828923044
991 0.00039920369382665677 0.00037397871103872276 0.0017921605998972951
95 0.0008006312112386559 -0.0022719057229696436 0.005261115883045548
57 -0.0009351463940998179 -0.004253258531905405 0.000206984813768269
762 -0.0027942715873266184 0.0005138080613575641 0.001121098990139755
412 -0.002452094629040985 0.0013833750491103025 0.0007189375006907804
223 -0.008062648721474617 -0.002918513213644469 0.0007434464972426631
848 -0.0032529812682239555 -0.0004476119026726327 -0.0003529096320329813
359 -0.00253976075546838 0.0037697573195446883 -0.0013347541667782222
294 -0.0039100307088569914 -0.0034758735583710182 0.00199984458900856
838 -0.0026719059223263677 0.0013023835230023411 -0.002183361837355923
681 0.002484679990861676 -0.0011768668441217876 -6.630442606337773e-05
867 -0.0022618415092796286 -0.001155365057013842 -5.485001816272394e-06
11 0.004399523561304519 0.0006339523915805922 0.0038291880847068894
152 -0.00022648438728086818 0.002350137994972715 -0.0029132762069311604
229 0.0013300423515417849 0.0028887610820770813 0.0007057206730520971
88 -0.0005306862774032714 -0.00010784172345086391 0.00023372911969150075
410 -0.0018865216839161637 0.0002638237008234731 0.0007098295262880536
122 0.0009590322946933859 0.0019479158016674286 0.0011498007269135553
684 0.0010127935818465268 -0.0019271584404000404 -0.0001479466661987974
855 0.0009881826292440978 0.0038952084693829906 -0.00254793716086369
779 0.0007549748861248697 0.0019132403960327145 0.002703216766889364
254 1.1920010067503318e-05 0.0008019639758177874 0.0004704927169714105
673 -0.0009721547589621439 -0.002352026832711988 0.00013907980121973028
196 -0.0007541941608363233 3.0482496159160338e-05 -0.0017437880886251188
90 0.0005038338871772423 0.0008243426760860973 -0.0021192122970267995
199 -0.001449665786960119 -0.0001238889990262584 -0.0012039662140630263
650 0.002418371430585872 -0.004574530038492004 0.0033771304741719225
100 -0.002311138182837796 -0.002127886293316478 -0.00323681107777389
905 -0.004976008293672649 -0.00041107974588735054 -0.0015278416959008897
502 -0.0008103217040871839 -0.0010366334567606952 -0.002087442362159767
584 -0.002807861226497284 0.0005262784663821396 -0.002189072451570226
381 -0.0029790411795996914 -0.0036404998783795737 -0.0005049761964568044
488 -0.0016517298391863586 0.0016961980334162835 0.0006100422520562736
99 -1.7973647859149919e-06 0.0010278975526748432 -0.0021066177671435695
970 0.00271516483815237 -0.00012777353692885698 0.0006955975344161071
323 -0.0035451919592979016 -0.001064395995484323 -0.0048735421981996215
659 -0.0006101704231900823 -0.0025803415621616756 0.00307162471273567
171 0.0014583834853540878 0.001135518135809812 0.00026325406221712526
83 -0.0009113771903302972 -0.0010541363389248066 0.00030708927581292044
972 -0.0019304788087237405 -0.0021263547929233195 -0.001334430290184694
528 -0.0026978523261284334 -0.0027411683821408424 -0.0014678969030891896
753 -0.001011223951074803 0.0023221942585877078 0.0024906767768796143
949 0.0016967480071157378 0.0028996009410030316 -0.005064658346147353
696 -0.004457276641573201 -0.00018830026757402747 0.0013732364856087558
250 0.00194855605574805 0.0012971702120306559 0.0010597807266667328
888 7.634017276789692e-05 -0.0014799537542765121 -0.0034838866001507015
969 -0.0003989057113489812 0.0018036702250203956 -0.0016562913796732124
115 -0.000532239045229766 0.0016688556105947606 0.0023799937696446765
401 -0.0008504379504249334 -0.0017304705978298668 0.0034613677159894655
986 0.0014347330190646098 -0.0020015768925686858 -0.00017069520342582757
195 0.0016801230219002366 0.0012578563682461817 0.0017163524221899624
582 -0.0015560541549300892 -0.005477139997319044 0.0021189815451206073
819 0.0010656812675869912 -0.0005889144200621223 0.0003183952868788337
668 0.003989042671287394 0.004529211539653111 0.00021511131233558113
334 0.0002775962392042989 0.00011596679233211387 0.0021864955011897326
625 0.000807006298385854 0.000852031555556567 0.0017759591844914231
146 -0.0007123769310039217 -0.0009247250659053477 -0.002689424028214118
391 0.0018675611152025092 0.0014969922983858678 0.0016128305004076973
451 -0.002956109437016932 -0.0034795041061005624 0.0027607298424144073
22 0.0017480682560225473 0.0016248254160261164 -0.002044095139828352
884 0.0011384683104879844 0.0019952306112218407 0.0007776197869908663
2 -0.0009026158342468134 -0.002418352710182984 -0.005906422295112586
482 -0.0010409579951808523 -0.0013831206058959906 -0.0026275189120171082
964 0.000946961369555547 0.0004087824403254034 -0.0009627479120843335
998 -0.0025588048664730552 0.0012564431018828722 0.0012792859782801776
728 0.0004507384730018979 0.0023572460046766695 -0.0002557751868322012
264 0.0007922606219818077 -0.004558665610812473 -0.0018452316214298927
731 0.003491083049591106 -0.0044536940740517 0.004688147396077041
7 0.002004415159730238 -0.0015908581949024767 -0.002629529426513477
484 0.004378112281619421 0.0014702334132959288 0.002851090649813567
422 0.002150999979600688 0.0028334905420039276 -0.002848354486345051
984 0.004132270841971517 0.0012691321065133054 2.5317352959594977e-05
891 -0.0005962014420804879 0.0012934370374575932 0.0007115071581920235
441 0.0002871679036355512 0.0028864713266765043 -0.0021954047093980813
351 0.003093213511888522 -0.002620067658573647 -0.0006648372349802931
306 -0.0010629358326689664 -0.001776346589646843 2.090884820020209e-05
348 0.0030374210408574366 0.004927375876146886 -0.0028441777048685613
599 0.0017047176178005866 -0.0013750155477380234 0.0005767845121657
876 -0.000247243868666503 -0.0005759436745975433 0.0017190555174289338
416 0.00014816384481768397 0.0011124581851406044 -0.0020171731224471337
606 -0.003966455368869564 0.00021063258786175554 0.000770799599896106
89 -0.0010764724396046272 -0.002173467100531724 0.0013561001439365864
87 -0.000334275952990743 2.7054275511624357e-05 -0.002418420725957835
649 8.968615856267454e-05 -0.003353431633541199 -0.0018533183054209115
875 -0.0002811779216490015 0.001793117650109632 -0.00031554844311907314
651 0.003800892562300341 -0.0029312722112394955 0.002598866016394382
922 0.00048632087296648566 0.001821507666406897 0.00335772953728352
977 -0.000343269316135753 0.002309704229175188 0.0012612587346278218
498 0.003574087999569126 -0.0015165700709843105 -0.00024252520071890127
736 0.004519366146077566 0.0029961070739374365 0.002060050078917325
643 0.00020700805015842912 -0.004381267282493095 0.0010031750986791322
812 -0.002251421914889915 -0.0007329750920805717 0.0012394959840379028
68 0.0048577878000600734 -0.0025718982887330383 0.0036740791371908535
682 -0.0006526397449704548 0.0010928278248371467 -0.00218583351662534
577 0.002833680706900193 -0.0006026872349440632 0.004538859691843262
330 0.001783167943232264 0.002939034191155618 0.003101401279951393
317 0.00035844932987011955 0.00516719475423673 0.00047545852784249075
646 -0.0011659782652204459 -0.0014910441186189542 -0.00217329623472418
758 -0.0031164437509969057 -0.0020527029011121255 0.0029821727775434666
658 0.0008065036076230741 0.004756961062611738 0.00014454717153322162
795 0.0023302726801365022 -0.002876408955141565 0.0013906236221827347
305 -0.00044029022108327276 -0.0008890659527869249 0.0020362907291847604
783 -0.002368330841817836 0.001597226221855213 -0.00022298468696996032
364 -0.0022157548719851294 -9.732105522080518e-05 -0.0025492544602613927
329 -0.0021700903795979117 0.0027942164649826266 0.0017654315830908556
325 0.0004096834316101508 -0.0002001008890720482 3.340766068189452e-05
434 -0.0003085208472509118 -0.0006685297379091854 -0.00011563955429123846
675 -0.0026264702950892335 -0.00202959501520885 0.0006969340939896549
227 0.001050732459549526 0.004645991711637758 0.00025235865989989606
752 0.0030208023179443687 0.004047877423006652 7.967639554029872e-05
443 0.0027431643655799016 0.0021407913778507637 0.0022877531726685565
527 -0.0006826509380185283 0.005953935119246429 -0.0035463195169896894
318 0.003031803538250415 -0.003969091495738335 0.002055502027539536
872 0.002444022868712222 -0.00042076619124946124 -0.0015222653905230918
546 -0.00010375831106879935 -0.0027925274046916005 0.002972649401352632
801 -0.0015684856420402323 0.0029132562798586687 -8.087097199106927e-05
832 0.00240694915504038 0.0012640496231896084 -0.0020491786415172634
205 0.003067767837405297 -0.00011415524020452274 0.001142041499601884
8 -0.00036151552745390274 0.0009545691980590275 -0.004128343344546321
174 -0.00035602900871446427 -0.0038946173865380216 0.0018017915567899256
667 -0.0017433553931930999 -0.0028028102664327407 0.0009939989623138595
404 0.0012903127972037564 0.0018432632890257275 -0.0004796774825333078
614 0.0015671892026778965 -0.0012384461395273053 0.0002932733839236616
910 0.0020559775512689112 -0.0011234644685580815 -0.0001369447193713173
869 0.002127000026541701 -0.0005023979846145143 0.003929225675221198
967 -0.0014473394096988638 -0.0008214990977443741 -9.108769552817839e-05
587 -0.002557952002793752 0.0017155232448069703 -0.000928563387406151
709 0.0036808281927927073 0.0004238622063588223 0.000582405618429108
238 -0.003821829005263126 0.005126683165820443 -0.0009726624246778765
20 -0.0019042189682355302 0.004103316473954907 -0.001518154429823159
817 -0.0001885193088594479 -0.0026710545206551184 -0.0037475341044911873
580 0.000697403303123607 -0.001748968031727625 0.0025267975727641593
352 -0.0013966410827142715 0.0023970850013447743 0.002661677497041139
509 0.0009413513094487229 0.0015725405416732346 -0.0015484185784146206
136 -0.002051006318114829 -0.0035034390031114097 -0.005134372702558139
773 -0.0032419845925991345 0.0011994411347036472 0.0021938657901007814
974 -0.0019145145937514009 -0.0008489461441795428 -0.00479445711026932
226 0.0001835631384856554 0.001766467631851064 -0.0013897286301207598
550 -0.0004808593195944914 -0.0012777746701377862 -0.0025383174772443296
633 0.001433304433591825 0.0011781860447714861 0.00022727364846896698
80 -0.0015709888434073717 0.0009966937984438077 0.006231549894943584
114 0.002812567669242556 0.0011639901526364243 -0.0009644235119059157
296 -0.00390626157844391 0.0022182723523128797 -0.0017562886969285682
350 0.0019980176239011165 -0.0018915178901575797 0.001380534702140668
431 -0.0008911957017491562 -0.0012277534445621816 -0.00301506927770506
698 7.517936583414463e-05 0.000920388198157979 -0.0021332691180419405
405 -0.00064661657218824 0.001463491917976176 0.004689747443439887
310 -0.0007202250411297893 -0.00431019010903856 0.002273369204463312
983 -0.0015748782994788701 0.0024786692233217146 -0.0032692172384921137
727 -0.0008202757652538549 -0.0004250684899432435 0.0003715974619789989
321 0.0012255028871470538 0.0011350001630542408 0.001800200778606889
804 0.0005551333476207456 0.0004925333416939536 -0.002149118011126913
398 -0.001944530600348366 0.001628989505764748 -0.00012324847295306138
78 0.000563432970904674 0.0019543401468682738 0.003536739762301809
176 -0.001090817041876504 0.0011364024652830856 -0.00045137118634858223
860 -0.004276124700818353 -0.0004311983371278631 -0.0012898299824478919
834 0.003449950816491501 -0.0021239930441888364 0.0029298401529296767
180 -0.0021409792356621615 -0.0027722262385239745 -0.005692157033738801
677 0.00045132380347047744 0.0017796872014266003 -0.00401520618364331
960 -0.0005582393868908152 0.0002552431289448032 -0.00040174109373826265
438 0.0024922980749667997 -0.0033584998611916913 0.0035471089299876973
950 0.0020701849317945734 -0.0013684911789376998 -0.0026887194341458282
512 -0.005671295976822915 0.0020461806592403063 -0.00014973984050371917
131 0.000987763405449678 -0.0002450186152613119 -0.0033035099602936845
465 0.0012039767458173426 -0.0005639187473592504 -0.0019690112259616575
858 -0.0038562236851352447 0.0008307765058989944 0.0026092380968807706
59 0.003266330003700131 -0.0023178520770414505 0.002165256321105385
721 -0.0040950042212827414 0.0038923100214164597 -0.0021468196365429628
841 0.003612711878479501 0.0010058692488446618 0.0007639028569257288
742 -0.0034575715541999043 -0.003285968330475277 0.0029073892020963546
382 -0.003923810066857871 -0.0008614038317827053 -0.001720116052854397
55 -0.001696179007980864 -0.0011931800295984698 -4.1106671295383006e-05
356 0.0006827599024790262 0.0018815160986420411 -0.0028624738453407617
535 0.0006193444142183448 -0.0009735660766766915 -0.0003472652375491402
380 0.00307315311622977 -0.002165685921375576 0.0017885164759234174
926 -0.0005744565427707644 -3.7423084263596945e-05 0.0015542321141141298
204 -0.0016014482368188528 -0.00017117415695756295 0.00249990451992571
533 0.0025811113070814194 -0.005097032314878717 0.0015413215052033223
128 -0.0010210510105644645 0.0013436438595416543 -0.00193285599859225
366 -0.0012993051842975286 -0.0009088594372860843 0.003532601878712866
181 0.002899403940686222 -0.0025765312432148254 0.0003420399228046679
590 0.0009680488915446755 -0.002236564915958594 -0.0010337214260776105
151 -0.00018885336139647078 0.002677206717696836 0.0015397225175015246
103 0.0020509465389442036 -0.0021007280383194154 -0.0014178868922010506
624 0.0013096795118060422 0.0013739660127471036 -0.0024256601293593727
193 0.0010149449918025171 0.001540935404317679 -0.0004352225938894575
263 0.002538956058501182 -0.003222356766582779 0.002603274942104463
331 0.0004908512100752192 0.0024765872357927765 -0.003365396079614269
821 0.002527065556634433 -0.001148248834338334 -0.003942366486989905
705 0.00012472983704911835 0.001755136015352581 0.0032291384706333937
439 0.001041889362908377 0.0004930615949796592 -0.0033487001389004008
69 -0.0011073671121431272 0.001678051254387411 0.0007577085876874222
755 -0.004011436527138424 0.0010857572810131638 0.003316628839831905
559 -0.0007248710298309145 -0.0027115496054002136 -0.0008293795284746707
346 0.0021815692906765392 -0.0019965154049495105 0.0006884367027630822
955 -0.005820158427984338 -0.004023971694262168 -0.004231762525760414
316 -0.0009527985897632633 -0.0020456142353696854 0.001475149572850376
979 0.0016587928238127644 -0.0033359739624263464 0.0019583461143764013
113 0.0049012325089519415 -0.00394182198437259 -0.00024553132135246114
260 -0.0012006956735300782 -0.0027358680230968936 0.002952450366547257
621 -0.0010601728312385577 -0.0013499309265857986 0.002233508008496681
655 0.0007219957367162327 -0.003558467028530381 -0.0013056513968506818
644 -0.0033698717201138166 0.0016511327878998585 0.001630738494474172
200 0.0035851023539407614 0.00015690994819259283 0.001101133101803843
538 -0.002472432465826681 -0.002021412627616746 -0.0037479589139805423
778 -0.005141683652909103 0.000620227365949829 -0.002894658343479105
81 0.0004288629354078771 0.002782069766865204 0.0011492842319493698
747 0.0022316285845891313 -0.0014333414041117624 0.0006263368344237349
129 -0.001463471397813855 -0.0021992518626910737 -0.001039795485410697
372 0.0025281882198015747 4.397609799597929e-05 0.00327975861117077
93 -0.00027905219658240726 0.0034862166851941973 -0.00032113605744172707
6 0.001717568807777335 0.0006523507212025026 -0.00111142263878664
751 -0.001761720369002058 -0.001264891652993295 -3.4586982759429876e-05
118 0.0011908321712908625 -0.0004486271819168108 -0.00166476862614977
203 0.0011086379155511282 0.0015446034517838392 0.004143806537070646
941 0.00202509847649783 0.002561457401056722 0.0015291376594363797
862 -0.004135074092740289 -0.0028695489892030866 -0.0026710156669929436
763 -0.0017914272893680325 5.3563929106532435e-05 0.00304170577718722
375 -0.0035924315756754137 0.003611124082482201 -0.0024803361561900918
529 0.00016521292750722657 -0.0043900804345975465 -0.0010876273212766822
211 0.000660444369948251 -0.004899140681886278 -0.004647291436951333
44 -9.017397518057849e-06 -0.00029385665831161827 -0.0025652590078436978
370 -0.00033302543682220496 -0.0007033613687343765 -0.004273305164953696
775 0.0007391976254994762 0.001093692289193645 -0.002044158050018427
847 -0.0004069645006609679 -0.000367502921737533 0.0032330836591031396
126 0.0032108417560100435 0.0021409371163128837 -0.0010035739645721045
863 -0.0010794726319993833 -0.0032278230746659595 0.0002675397570048345
520 0.0009591205567377076 -0.001169481852465911 0.0006448614985349596
952 -0.002644374024030873 -0.001718621373570912 0.004321972475481462
954 0.001020659834216716 -1.819196710509734e-05 -0.00195762107198842
208 -0.0005462077036740368 0.004142765645030652 0.0032458496549358272
369 -0.0009018653702225761 -0.002699942651783817 -0.0015534633190114483
672 -0.0018914649273854584 0.0018988798160681835 0.0008231416135824997
79 -0.0008845433136038169 0.0021080791303758426 0.0007994591312633264
409 -0.0024818408620133577 -0.0015511935645895823 -0.001032052767871199
912 0.0004624977284427538 -0.000680279688585242 -0.003400722821579778
671 -0.0023871737681595046 -1.691843866128639e-05 0.00042159631721577307
13 -0.0014150595999718545 0.00039426621702136957 -7.840814913691821e-05
904 -0.0030126442513176495 0.000657020875005701 -0.003300948311915659
420 -0.005789924307970513 -0.0008920972865242913 0.002318744233037576
243 -0.002519350255013923 -0.004418007540557767 0.0004278141392367807
343 0.0037572694434930593 -0.0011745208805534718 0.0019792500795142477
508 0.0009044040344527348 0.0031961509680606963 -0.001961505448885011
24 0.0028457752155706447 -0.0009758909554017551 0.0002561737880154728
750 -0.0010791262443501173 -0.0012248740858919764 0.00153336404785661
397 0.0002773235177091644 -0.0018278700098037452 -0.0006867255616989086
67 0.0012660819852864215 0.0004573466904899848 -0.0008912487839560271
908 -0.003925077276946438 -0.0016627597486499827 -0.003008583001409009
570 -0.0008125343040027329 0.0024707999492229243 -0.00018341605273529234
981 -0.0035352534519605236 -0.0022670659171131827 0.0012835560871250352
578 -0.002062603638492794 0.003800684672838935 0.0003924899597772135
611 -0.0006667714819644964 -0.0022678187789593493 -0.0036765562029808557
616 0.0008286769567692278 -0.0039774137663916775 0.002227377738119174
541 -0.001822633527687151 -0.002623165720632497 0.0009733239429108316
717 -0.0011660008426096883 0.0028829452734402267 0.0023179631568098166
823 0.0033705437680024214 -0.0030373074129738382 -0.002803001294722459
32 -0.004044248407426421 0.0038850998760409055 -0.002091053392484869
326 0.0005458869108841234 0.0025885018690280756 0.0005604927057655592
175 -0.0031462892110392577 0.00030239602212931213 0.0010384465410629665
277 -0.00038185970886733323 0.0026125547412561762 -0.0017711961400377605
663 0.0012905463815208688 0.0008073982978619005 -0.00024382379802521327
815 0.003241284082296251 -0.004035967323110603 -0.00039560412469555193
178 -0.00286680666994077 0.00033845232664519233 -0.0004469106299640801
189 0.001909796827439949 0.0028572149290910023 0.0007894360575848689
117 -0.0001834420037678506 -0.0011063586218417836 -0.0027443603496848422
444 0.0016351517981488164 -0.004302707479871917 0.0007344345813468477
827 0.0014486802400818708 -0.0020798444482088003 0.0018875370677748728
481 -0.00010202222869977585 0.0020095811160884057 0.0031890881819758923
121 0.002376700421432242 0.0016747188115439592 -0.0019121814115350755
269 0.0032388204011869074 -0.0018537581741973532 -0.002242786583133646
25 0.0019306581168947903 -0.0035144602785270695 -0.002347557178627091
708 0.002300508453402324 -0.00472775961771963 -0.0003248457342063355
267 -0.0038585886675002313 0.000207635347282939 -0.001115926375632045
887 -0.0029759666745055946 0.0015321374903192904 -0.0011592206435871353
995 -0.001065497344122404 -0.000795327350764925 -0.0011068771424261735
679 -0.0009035370152542753 -0.0014974997233296134 0.0003862507131390129
822 0.001056856250293704 0.0010343668336210946 -0.0016618854010175229
289 0.002454008210712073 0.0009689648715132949 0.002687029218030949
782 0.0023079912065574826 0.00037850734223645607 0.0012398388089896678
802 0.002296326424391607 0.00200612033170358 0.0015861153099463888
273 -0.0006670518748463341 -0.0005628974125395886 0.0016940074589132561
166 -0.0008176571505152411 -0.0009270088689224392 -0.0033741320257231542
629 0.0025300874988992647 0.000264051352823962 0.003351584286151796
516 -0.00018465133174719827 -0.002340646796044206 0.00045882774431124586
140 0.0006842771520552848 -0.00035699682383496975 -0.0004143831380769535
735 4.096965894186088e-05 -0.00010106780791550815 -0.0008457293427286826
86 0.0002731772022201673 0.0038339434119438716 -0.004248106432033574
460 0.0024612285711353298 -0.0005999610464921634 -0.003331806724099845
903 -0.0008295412716673263 -0.0020085473909744345 0.0018066141593357586
678 -0.0017241525605181949 0.0026526052894980906 0.0008810768208304371
792 -0.0020626835162762015 0.0029594801919910385 -0.0022446182413456903
999 0.0016626536550630251 0.000848345622273927 -0.002707371392321391
4 -0.0028284187614697697 0.0018617790654941 0.0038641234774103106
982 0.0004184194353344607 0.0063981037794920955 0.0018849206448098314
936 0.0005545623633179207 -0.0026860926044070524 0.0040076757285207616
703 -0.0017474087434616247 -0.0013265978944648569 -0.001853111525242758
996 0.0008086416730952166 0.002503530241066599 0.0004355342307678373
135 0.0036186529386395914 0.001309474859322054 -0.0006649255450368666
308 0.00038686189334278886 0.0012028720407849668 0.0020510784788407947
937 -0.000518517697285959 -0.00045189278537353895 0.0001741845520830808
220 -0.0012305439174160886 -0.0016385869452426025 0.0007198982834317185
733 -0.0020540535938005813 -0.000883091821085601 -0.0005758130858673198
556 0.0017114500401540598 0.002265863499213307 -0.0008035710159772021
604 0.0028978274770734224 0.005642093133571194 0.0007368785969612356
182 0.0006750956198763841 -0.0011343892529602638 0.0007015938912299071
586 0.00017435659061964967 9.898396548013095e-05 -0.0009190817146068754
641 0.001961478843365142 -0.0012014160900565205 0.003373671525868948
864 -0.001522525822010054 -0.0007136754873575695 -0.0005049575598792301
344 0.00025070303840750126 0.002658274344008668 0.0019241070642585587
917 0.0035976430119770294 -0.002792200048101592 0.0022028970135233496
283 -6.15594505243537e-05 0.0012375932976641238 -0.0034430394025807428
365 0.00040078834376263626 -0.0036798121338817475 -0.001591184882856588
526 0.0010476272992086745 0.00019511982795090448 0.0045035707014541996
486 -0.0019438280466306497 -0.001431614949201267 -0.00041474300602228957
868 -0.00031364152349424624 -9.818184971051368e-05 -0.003991486294082804
272 -0.002079719169714304 -4.891787799163552e-05 -0.00013950434837910428
284 0.004500729469309939 0.0033421796464971473 -0.0012723389243583763
150 -0.001224801803703507 0.00020276403893349128 0.0018581669029886477
670 0.0048292367615339555 0.001111569024960479 -0.0022486480409890167
109 0.001170848179387562 -0.0025354801139262197 0.0027861444208093448
225 0.0008037363227937813 0.004916540391549103 0.0006881075139295166
730 -1.3653127293179848e-05 0.00044756744518966373 -0.0005492197926031329
396 -0.0006498351232958909 0.0017395033820871667 -0.0009247855680792118
944 -0.003139522582584436 0.00251242492143436 0.0017978861244865453
806 -0.0011939791132647632 -0.00037922998826096267 -0.0004680321504367518
787 0.0009182106730314068 -0.0034542601176857533 0.0006125873249703871
589 -0.001325661760146083 -0.000497484423027161 -0.0011695650436788557
704 0.0034271631824603524 0.0023167941578777253 9.375303465195455e-05
521 -0.001300477392447872 0.0006894925829375379 -0.0039153584723813474
392 -0.0019135712048649024 -0.0008932195105803476 0.003929857514815273
232 -0.000685981920192284 -0.0001577599057372823 0.001987173473419466
393 -0.001027712060953569 0.0027140864155123143 -0.0006909609175697793
919 0.0029785339261834284 -0.004950910851145496 0.0003526997451196397
492 0.004552944952957407 0.0035172755991779345 0.001295109473263287
1000 0.0004187621856386825 -0.0017685854847317673 -0.0023846607114020486
515 0.0019271790533077152 0.0012456710110585907 -0.001963563108939527
759 0.0018679799657309326 0.0007346346451188704 0.0020137794267744195
61 -0.0035659131920870693 0.0005955869609693041 0.004357584163964957
468 -0.0011945208903013584 -0.003763954570250789 -0.0028648233471994197
153 -0.002186861364831488 0.0010658326589177967 0.0015082248887629843
900 0.0022572699484451637 0.0021996628025349675 0.002990455457632769
623 -0.0008450950474589151 -0.0012144175059816472 -0.00411464762680271
645 -0.004119453742798672 -0.0011574105974010926 0.001003314552599312
865 -0.00022699100175651392 -7.910870382708523e-05 -0.0003982763575796281
228 0.0032457588179779354 -0.0007877604812021268 -0.0011047776029115743
23 0.0022769556854951457 -0.005073211050849933 0.0003944877990871962
766 -0.004598064638417197 0.0010495814888164276 -0.0005919259527918222
669 0.0002276299944294631 0.001194302021403039 -0.0012190194219110155
575 -0.0010925130269037596 -0.000815475865888835 0.004007598881430423
585 -0.0021202142403937948 0.0019474298406338107 0.0007599803752633209
177 0.0012880513587084092 0.0020882827296949927 0.0035758554401229027
885 -0.000743766453504896 0.0001223872310603817 0.0015892789150166538
769 0.00011419504826201603 0.0011156480130462075 -0.003594708972689578
275 0.00015405785775090994 -0.003248422256288391 0.006357776784834508
555 -0.0019398090460223604 -0.002768665316047794 0.0013896106413396649
377 -0.0002925455721017762 0.0035152693736069064 0.00699721916375953
197 0.0024792876630568453 -0.000669339941036964 -0.0031304261379061465
322 0.0018904627086638569 -0.0007150805152127132 -0.00028893341786176787
816 0.0009944597710798942 0.0014263338665239185 -0.00022836656872550644
968 0.003914671297404549 0.0011342316313000965 -0.0014177552976534075
990 -0.0038540191454751968 -0.0011931981249365304 0.002573968285978494
878 -0.0008844604367276488 0.0014776810971860058 -0.0012210243987301789
549 -0.0026277133407478933 0.0004059812581902322 -0.002098322016531461
288 -0.001230132210336319 -0.0025856006172149068 -0.00018884192691218012
386 0.002392472807215888 -0.0001740184071686515 -0.0016802316096260355
771 -0.001257967424485004 0.001235839178050741 -0.00035318042991668323
563 -0.0003868986250442131 -0.001108281671991492 -0.0012424958429166854
971 0.003393712157593285 0.002789503349549867 0.006781531853192284
495 0.002692932942925654 -0.00013997248785752354 0.00010676091102975697
988 0.0024287667464362255 -0.0008660585611187737 0.001430232226115003
433 0.0010870354899231312 -0.0014265092039319827 0.0031538659213069093
820 0.0007061908904148172 -0.001156369377235589 0.0009841039851048302
333 -0.001636049723772526 0.0029536073787677446 0.0025898610447840603
693 0.0016996370572374634 0.0006814190528953124 0.0009622732206349624
894 -0.0014073401510634295 0.001984293256175586 0.0023938734006288165
499 0.0016730358159438325 -0.0013269645283871194 0.001035579042901496
70 -0.004901402329236267 0.004555491613681715 0.0011523734472566425
874 -0.0008237788994530094 -3.00823203037384e-05 -0.001921037367088658
46 0.00046620537876438186 -0.0002205112334711158 -0.0005814194941901482
695 0.0023617209665907257 0.005694006126270605 0.004833316679673295
339 -0.002304694800418426 0.005086058139630996 -0.0001514844422224562
16 0.0016414555485891314 0.0016544709246305443 3.207700497541102e-05
756 -0.002967224286093867 -0.0022486286686611225 0.00037219750813120985
811 -0.0014789200032247422 3.796624064718482e-06 1.2679844664612114e-05
901 0.002046423900053969 -0.0024752119163518695 -0.00017617964059739855
892 -0.0013485938357010476 0.0009432591108816715 -0.0020100040958049158
517 -0.002124828444510449 -0.0005316700431804974 -0.0013101963062046055
898 0.0006689067754250883 -0.0017807161680220979 0.0013809345012448042
539 -0.002252923407368113 -0.0025537045043939415 -0.0006762149917100216
770 -0.0016930114652377835 -0.0005902493713051132 0.0027978436747916405
36 -0.00038410009041931587 0.0025067256544991034 0.0009515484114503662
142 0.0016479634724857908 1.4612639893502448e-05 0.0008000196949886048
818 8.224988978870347e-05 8.517884810613985e-05 -0.0034193959465529723
688 0.0007553494322233854 -0.0017101719816773222 -0.002277634694340514
661 0.002328423848752881 0.0038848006615665926 0.0020860485507030835
613 0.0027722893914627882 -0.00021743966426509474 0.00016968753797303406
262 0.0008900907716227369 -0.0009318964878080793 -0.004794541966201183
871 0.0004823476596978695 -0.002587082260978878 0.0031928247551621896
169 0.0007364184982421418 -0.001925058235039642 -0.0020788532033126452
143 0.0035481655040274485 0.0034517976170169245 -0.001260298302190628
933 0.00054415326498507 0.002187344250717762 0.0005603260587911143
51 0.0013848655905776325 0.0033884720457207545 -0.0025059142872223285
328 -0.0013342603749568983 0.0038023532622830135 0.003999624059155128
461 -0.0014619696975793092 0.004038463660345125 -0.004764720369545586
222 -0.0005435224630232074 -0.000550652517047545 0.0008680155017067253
408 0.00301560797785095 -0.0016839761346593154 -0.004613745502774148
631 -0.0024797140761698075 -0.002100964849500937 -0.003735860929949807
34 -0.001488738771113559 0.001766356184900152 0.002007963257955752
734 -0.001887140498083275 0.0038405043109904307 0.002807786372826536
427 0.0018481323410227436 -0.0003317202201066877 0.0009032206937292079
739 -0.001099820555360755 0.005075156587543997 -0.0008127293237256885
463 -0.004697718565828993 0.0017621621600055917 -0.0035060838271072864
12 0.0004091439988571416 -0.0015048430672267188 0.0030057849061695275
794 0.002765640439059559 0.00030464962067281863 0.00037188063459230985
259 -0.0033692421007870347 -0.006849363354415359 0.0003887641688261921
716 0.0018411422675163173 -0.0032673983658716246 -0.0028478381196482866
454 -0.0022199058406309567 0.0013023164846659681 0.002502695851389016
873 0.0017462646859440257 0.00270721151377438 0.0003390546147928366
198 0.0033939483110491564 0.004772283304891928 0.000258689050277021
480 0.00253613026621642 -0.0015481148175001968 -0.002531349092252213
389 0.001481551754729326 -0.0023546491682820136 -0.0011442161676931818
134 -0.000719387266095772 0.0019944414275787545 -0.0031759230457646956
542 0.00023917294868963296 0.00014067783088958952 -0.0035133075517980485
320 0.000567726922803673 -0.0002946811691291333 0.0016455725895582229
184 -0.0010857163283289049 0.0014412932647785645 0.0015120368377523632
654 0.0012859818073232903 -0.0007028147798639735 0.0015910712710798989
959 1.1631142106790327e-05 -0.0026990111237896026 0.002170714349208825
601 0.0013006863361136086 -0.0006276960539125505 0.0033531768856262904
426 -0.002131847345719105 -5.313870398619843e-05 -0.0011854678035393747
74 -0.0011692473990794793 -9.38992186827945e-05 -0.0013279364999209623
927 -0.0003127179336212861 -0.0003119556266928608 -0.00013030159574815576
447 0.00039079397301536035 0.0018673214169505376 -0.001844116966634895
761 -0.0007505185332798949 -0.0019561995785553074 0.0018290754512565676
883 -0.0029503070592774394 -0.003969393875304466 0.0001553512000448814
304 0.0008823307121998955 -0.003807960715635976 0.00034609991417380636
710 0.0019400787486653533 0.0015135793576035062 -0.0008682239186192632
583 0.0016382826219185419 0.0007436204485864867 0.0013409056554191268
849 -0.0007371385084005339 -0.0029865998926949934 0.001292992019843633
932 0.0008974995989930367 -0.0066148750432935685 -9.453260700122913e-05
335 -0.0009892670586346016 -8.915439752347567e-05 0.0007166601313131312
446 0.0003823431361644381 -0.0031730230801204915 -0.00026670760475834635
798 0.0037056213884343486 3.5069724925820306e-05 0.0008344940457864716
627 -0.0012539181081035846 -0.0013571640578449416 0.0011015013568050373
511 0.003217929433099045 -0.0010161132341751354 -0.004197339903409265
870 -0.00013960079835222084 0.0017975546697048322 0.0014384611410801441
597 0.0004482850716762029 -0.0011411728722278015 -0.0015477257945524124
424 0.002576060287502758 0.0024016397436863713 0.0008786387657802328
767 -5.847845003992656e-05 0.0017208267369005232 0.002048477749069468
358 -0.0033811518287305145 0.001194909767005821 -0.0030769597820750456
897 -0.004026493729878783 0.005008617215426467 -4.7368170173282513e-05
165 -0.0008770058651385238 -0.000521335372976171 -0.0013784778283500462
757 -0.00026088231860486497 -0.007040646031118229 -0.0017934396610010523
479 0.0020135036002349783 -0.0023419569484302645 -0.0013870363790011533
185 -0.0027635307490810382 0.0003712553998860583 -0.0011420513273784176
47 -0.0029037040908310363 -0.0011798235115974913 0.0005188370593234391
540 0.0014118886226866267 -3.590699499484026e-05 -0.0016596521043005434
368 -0.002005441773754605 -0.00089392195913167 0.0008695000610509883
789 -0.00032171161552995375 0.00021961776603348032 0.0002690045209811698
706 -2.3129882833800908e-05 0.001801000902469514 -0.000909854304034032
530 0.0003740401037957666 0.002097423080183716 0.0044124150938476955
280 -0.0035555632436234815 -0.005918019580746927 0.002798998482503801
319 -0.002179352890749732 0.00032567022123232046 0.0005964710716095871
814 -0.0033754715730013114 0.0029556853902461535 0.00102479280900917
253 -0.001303765774284733 0.0006075809951376493 -0.0013572305353872407
374 -0.001988708069421335 0.00048786602492839376 -0.003382819636349295
349 0.0011175058125854353 -0.0008586603808860304 0.0032589831879931146
598 -0.003170026857427572 5.6509712546818983e-05 0.0031805373774209875
743 0.0020063990829169522 0.0023085302508367455 -0.0007284477343394592
500 0.0010543174716906771 0.0007827479979592228 -0.0017955359323907068
552 0.005133470639819132 0.0012124876305849564 -0.0006058092672177845
899 -0.0007531568760553475 0.001027169283709781 4.339357045729001e-05
149 -0.0041339128068117095 -0.0005379270086276944 0.0020262174956393953
17 0.0032394585486015346 -0.00194375247045801 0.00011949221191344849
909 0.0003939981769419909 0.004131278246381298 0.0010510180213210833
179 -0.0009918679519838444 0.00016290260575478236 -0.0003826511367329219
309 -0.0037222131682891684 -0.0018574900245454133 0.002250864364931467
595 -1.9943158451887287e-05 0.004412627846677898 0.0025703335146421633
877 -0.0011440102078634146 -0.0021376892316998255 -0.000444165859789989
302 0.0015886802022862 -0.0014057481018306356 -0.0001582257978223784
632 -0.0021781390969702 -0.004022468160745932 -0.000664005102351972
464 0.0021139019664552297 -0.002896998265249943 -0.0009113710379389448
29 0.002611330395746498 0.0013475327900989474 0.001409492883641278
39 0.0019804711597598014 -0.0064236605374662185 0.005365113550618011
164 0.0029656078067146537 0.002557893934087027 -0.000510835303591237
455 0.0005615740566008407 -0.0031266264970259564 -0.0009238119208744825
237 -0.0036594060889380033 0.0025251803833078925 -0.000456346666937249
889 0.004307588391589993 -0.0009673646709463329 0.00013935628131798945
639 -0.0021550569096511277 -0.001315587094203624 0.0046311789552668965
63 -0.0005886819283420609 -0.0033188502130262246 0.0033207844551918575
956 0.0004861708675703413 -0.00020626344793692482 0.0025517394813423864
242 0.0007679656136768734 0.001099695372324511 -0.0013959891293187155
963 -0.0012720249678159698 0.001030029978179852 0.004544814818368843
796 0.00044585976682858636 -0.0015111219213944352 0.0001868748129020385
980 0.0011291046406989183 -0.001902049741194089 0.002776186891718333
436 0.0006276403285151242 0.001690402035632212 -0.0008490102420410284
45 0.0017595842205505212 -0.0014052592727477945 0.0002506442446965199
925 0.0006113272902606406 0.0020082631357939847 -0.00201858969480627
915 -0.002676244992491278 -0.003433579844984417 -0.001233612644580122
548 -0.00013176630732814623 -0.0011665949537587026 -2.155165732407238e-05
77 0.0013920456164481121 -0.002998979827241528 -0.0023156181113612754
133 -0.0015500134144276862 -0.004426782752885134 0.0013026957149873191
299 -0.0003595564368921526 -3.6588366955675792e-06 0.001026356836436187
91 -0.0021617693223910236 -0.0017059582843176834 -0.0018974318698883994
167 -0.0006459956033567678 -0.0008278781183803319 -0.0014889292662934289
101 -2.8445496114466674e-05 0.005076731572886604 0.0009865185720255782
62 -0.0014456226463062532 0.0027514797932380324 -0.003761002542740613
653 -0.0019837696037195776 -0.0016280785301267082 0.0011920673947057158
347 -0.001769415255417904 -0.0015153074495498453 -0.0010940664227641764
504 0.0018071721569828047 -0.001284945083825352 0.00100687455421707
411 0.00027027260102560125 -0.0014943255458433303 0.0028300204742244183
402 0.005132824121102475 0.0019715233341800124 -0.0008395812362369487
844 -0.00035334362030094846 -0.0004739944133153373 -0.0011871104995356723
435 -0.0003967382680191687 -0.001459489432159661 0.0020616939635762555
784 -0.0019774051621057106 0.0004792864624851027 -0.002278758628040537
596 0.002371930689636424 0.0006231564517105827 0.0015262522300244314
186 0.000873278885266402 -9.253232784926896e-05 0.004572589946740756
170 0.0030799965268612376 -0.005942987000011339 0.002530807778994398
707 -0.00042910745056754787 0.0025437422320582167 -0.005109328384879079
403 -0.0005999148404637479 -0.0008421054115742511 0.0032096446969898432
268 -0.001628641170595234 0.001443920226915037 0.0001059533798139232
48 0.0024641864610674817 -0.002224544443133351 0.003893567242277858
363 3.2417714549577736e-05 0.0009699811694023826 -0.002177822765127927
628 0.0013317299049187758 0.0023840269801580455 0.004602746868257097
581 -0.003962108043925206 0.0011832433678098297 0.0003067043013256018
490 -0.0011821344231571999 0.0007334526037787731 -0.002070776447849664
379 -0.002247597477698118 0.003193911588290977 0.0005238616803542616
105 -0.0008380695219559574 0.00045146060473189416 -0.0036501355136005094
421 -0.0012556581449668794 -3.0323522299772104e-05 -0.0017766048048172734
913 -0.0017362459991917421 0.0012380614058447774 0.0027744627354002217
934 0.0012927157197090604 -0.000502725499120778 -0.0005100150161262538
458 0.00037698230882778126 0.0014244408185662223 -0.0006187983130601381
130 -0.0023875734894394126 -0.0019980450924824123 -0.002450024700950962
902 0.0007654005582685799 0.0020969855914967335 -0.002739064792641851
40 0.0016051799613701024 0.0031226008286347686 -0.002066637853428686
82 -0.00011204275872045083 0.0010203705438437145 0.001275947759642861
618 -0.0024351738920577923 0.002479858641799667 0.002601668611416652
119 0.0014379910106291946 -0.0008016891033532146 -0.0025508617329591384
522 -0.0037107791009254962 -0.0009187889948067487 -0.004462324418751154
64 -0.0009042710169906189 0.0010425016845303748 0.0013118609298118334
274 0.005204783671779488 0.0006621745898638937 -0.002120968378330225
506 -0.0018257931208459674 -0.0016342093707191064 -0.0025689710526866014
173 -8.148625059198516e-06 -0.0029232494725341678 -0.0020923163091489394
845 -0.001041381567276836 0.0012899076072799829 -0.00039802148429535065
102 -0.0013212388479374758 0.0017022871026268751 -0.00012977392821537418
112 0.00010262796829409015 0.000488006534559192 0.0009069206916086938
744 0.0013808221710307678 0.0026521296671629365 -0.0030682258837078868
946 -0.0013614836809661783 0.00013811708466305428 0.0012707966485176808
800 0.00035748769716059935 -0.0041952969178586826 -0.0013108196769571895
373 -0.0009474293843334539 -0.0016178975656970112 -0.0013387435454413627
327 0.00140261621024927 -0.003247357991560131 0.0012208215418864875
543 0.0004576279486591821 0.004592210586298234 -0.0020363554884448914
251 0.0017087818773614193 -0.0007761443849721708 -0.0016118519503141074
647 0.002287787493244849 0.0002037984002642088 0.0015538490512873213
49 -0.0004372940899919856 -0.0024006606187579357 -0.0011827718067999578
835 -0.0019978808320225577 0.001089654625850338 -0.0018809470599978678
418 -0.0023150299125242295 -0.0008831337587479683 6.307859397607672e-06
560 0.0031485604542341307 0.00045164611587463464 0.0011371316410370808
345 -0.0015590870092601517 0.003687222275316373 -0.0016784660426037493
265 0.00010021086047986926 2.884006666375439e-05 -0.0031434416470765784
33 0.0004695570927760172 0.0010952931951370578 0.002853577758915155
930 -0.0009378664625071231 -0.002562686843415119 0.004202131689041572
399 0.0030595790660053793 -0.004231830492463184 -0.001004623658198256
31 0.001619038588618395 -0.004691514601717228 0.0002187318375740931
554 0.0001522195908570996 -0.0015755526830495566 0.0014412015784897876
218 -0.00020344141244703378 -0.0002474618271619974 0.0011548442775909582
519 0.000637713865594577 0.003313415688843493 0.0003681813434155043
942 0.0006006150712110278 0.0002341778640686932 0.0011016925615116946
642 0.0017363503580077307 0.005372836689502076 -0.00403602252285839
536 0.0025584898458229357 0.0013320371658930071 -0.0033680315857682395
50 0.0014411035602760254 -0.0004234668411815182 0.0031009690666987267
634 0.0005895382004573539 0.0004662563129890902 -0.0008221330455407163
839 0.0021468150385208526 0.00013203656079618164 0.002956852676395973
456 -0.0006867318338809525 0.001221264018424073 -0.000610455294066862
626 0.0010075808429043551 0.0042983633165160386 -0.003443916603532388
394 -0.0010603012061556538 0.0013416783261579503 -0.0002066064358448853
987 0.0009219652877536821 -0.0007774144219553671 -0.0005216779051421876
340 -0.0016243021694649213 0.0024245616347924313 0.0012562123374164466
30 0.0001815713271526495 0.001091556686353887 0.002402779083861463
557 -0.003609132913102923 0.0020944761207322858 0.001261994335180996
507 -0.002226843204932514 0.0005867233931549402 -0.0026837524166195468
939 0.005259087080037734 -0.00595853271913106 -0.0014432392876511568
478 -0.0021915021237778995 -0.002003802010539454 -0.0011932961716933227
572 0.0007559793763858405 0.004872388772543893 0.004466354767115719
518 0.004252807386052828 -0.004190693990612978 -0.00036508478799048526
544 -2.6220768190365035e-05 -0.0023228696160950703 0.00029846991551828384
809 -0.0009214480676500004 0.003189477270898863 -0.0020905873102784215
266 0.0018297481422074385 -0.0005816476370638245 0.0014135236824613082
976 -0.0008531973390394028 0.0006105811407126004 -0.004299890143042638
18 0.0012149338966596388 0.004928855606743879 0.0005829010098614789
608 -0.001201832859994159 0.002897841990064078 -0.0007410831794444901
524 0.0006868226099714011 0.0008353946516947688 -0.002053577215251231
948 0.0011057023095190118 0.00042498350006670086 0.002109263759046754
311 0.0026719180985183065 -0.00029336103285324244 0.0012075571503336966
833 -0.0010255290571198428 0.0015792974494568959 0.001273969472166262
252 0.00023860391137866011 -0.0003646837806681865 -0.0026205751814969208
664 0.0023073187208169457 -0.0014971810855626308 0.0017950366786934522
66 0.0004858955514641298 -0.0028610944181616314 -0.0008410122802223326
155 0.0031031951361889035 0.0020766039697890067 0.0010003076585029295
711 0.0007658659247083157 -0.0016633884741116347 -0.0029409235053231616
73 9.53349910189152e-07 -0.004665972654596021 0.00039501279839829017
154 -0.0007086039878069628 0.001698506695628914 0.0008858417285074793
440 -0.001425949380979398 0.0013723133326303157 0.00042845964981335223
648 -0.001008259057276141 -0.0016935117114124363 -0.0027354775789889562
920 0.0008109334174609633 -0.0008603656812206926 0.003952470492414848
953 0.00012572098894181481 0.004462824698270654 0.0007502513791395992
300 0.004174656627143907 -0.00048256437777093486 -0.0024536929023837284
414 -0.0038704507271764598 -0.002264669207741499 0.003097950046406291
168 0.001132901768037216 -0.0008380502411147704 -0.001612572213344208
388 0.0027385668732221187 0.0017500208888675977 0.004325083860327832
993 -0.0006057342860930556 0.0018761967404499495 0.0002966909572215496
882 -0.0009465426521829448 -0.0012937599938243729 -0.0019470084715019786
287 0.001518231399981177 -0.0012296507054874192 -0.003837670137106296
997 -0.0011882762342299632 0.004627495260965302 0.0017067666823841394
510 0.0007821071478811741 0.0013721191679820373 -0.005095668083279299
38 0.004162575580146653 -0.00223321855576528 -0.0026984615457008518
240 -0.0011339983531436066 0.0009288314980807561 -0.002780488888984989
622 0.0009403704362857849 0.0008706333196372425 0.0012378842248900995
571 -0.004440704595049646 0.0023404278041444133 -0.0015030828505442468
694 0.002168255834848273 -0.0010253705051243127 0.002050602423731428
745 0.0028990252821787183 0.0014530785232785802 0.002522783040736689
685 -0.0032743191579560327 0.0035256500490533256 -0.00205471053080134
241 -0.0030233997852290194 0.0016179084849219849 -0.00401937485139167
192 -0.00192081862792108 0.0009865678982715791 -0.0028949686274077797
120 -0.0011559914496888136 -0.002625425796837205 0.0005315059745536734
612 -0.00019908578154425541 -0.00035612714357444994 -0.0028656788850616732
125 0.000429834464095651 0.002270722960310055 -0.0033258085109048826
531 3.7382348208360795e-05 -0.0010989922753789486 -0.002962365100240685
958 0.0019431448774152242 0.0017993364623286356 0.00112544456251709
723 -0.00024481059548100075 -0.0014396117384842654 0.0007227044405674741
415 0.00021039557106772124 -0.00013840491104941254 0.0001100810239148706
699 0.0009360409336255839 -0.001004324263963037 -0.003263196847064108
