LAMMPS (22 Jul 2025 - Update 2)
KOKKOS mode with Kokkos version 4.6.2 is enabled
  will use up to 1 GPU(s) per node
Kokkos::Cuda::initialize WARNING: running kernels compiled for compute capability 8.0 on device with compute capability 8.6 , this will likely reduce potential performance.
  using 1 OpenMP thread(s) per MPI task
Reading data file ...
  orthogonal box = (0 0 0) to (26.762877 26.762877 26.762877)
  1 by 1 by 1 MPI processor grid
  reading atoms ...
  1000 atoms
  read_data CPU = 0.007 seconds
========== Energy Minimization ==========
Generated 0 of 0 mixed pair_coeff terms from geometric mixing rule
Neighbor list info ...
  update: every = 1 steps, delay = 0 steps, check = yes
  max neighbors/atom: 2000, page size: 100000
  master list distance cutoff = 14
  ghost atom cutoff = 14
  binsize = 4, bins = 7 7 7
  1 neighbor lists, perpetual/occasional/extra = 1 0 0
  (1) pair lj/cut/kk, perpetual
      attributes: full, newton off, kokkos_device
      pair build: full/bin/kk/device
      stencil: full/bin/3d
      bin: kk/device
Setting up cg/kk style minimization ...
  Unit style    : real
  Current step  : 0
WARNING: Fix MINIMIZE/kk not compatible with sending data in Kokkos communication (src/KOKKOS/comm_kokkos.cpp:767)
WARNING: Fix with atom-based arrays not compatible with sending data in Kokkos communication, switching to classic exchange/border communication (src/KOKKOS/comm_kokkos.cpp:780)
WARNING: Fix MINIMIZE/kk not compatible with Kokkos sorting on device (src/KOKKOS/atom_kokkos.cpp:212)
WARNING: Fix with atom-based arrays not compatible with Kokkos sorting on device, switching to classic host sorting (src/KOKKOS/atom_kokkos.cpp:218)
Per MPI rank memory allocation (min/avg/max) = 4.633 | 4.633 | 4.633 Mbytes
   Step          Temp          PotEng         KinEng         TotEng         Press          Volume        Density          CPU      
         0   423.15         4.1675535e+14  1260.0684      4.1675535e+14  5.9630291e+15  19168.952      6.0398583      0            
       203   423.15        -3304.9939      1260.0684     -2044.9255      4120.637       19168.952      6.0398583      0.094204363  
Loop time of 0.0942094 on 1 procs for 203 steps with 1000 atoms

98.9% CPU use with 1 MPI tasks x 1 OpenMP threads

Minimization stats:
  Stopping criterion = energy tolerance
  Energy initial, next-to-last, final = 
       416755349294808  -3304.66652746597  -3304.99393385439
  Force two-norm initial, final = 4.020161e+16 3.6474626
  Force max component initial, final = 2.2652674e+16 0.70329877
  Final line search alpha, max atom move = 0.090354756 0.063546388
  Iterations, force evaluations = 203 289

MPI task timing breakdown:
Section |  min time  |  avg time  |  max time  |%varavg| %total
---------------------------------------------------------------
Pair    | 0.036881   | 0.036881   | 0.036881   |   0.0 | 39.15
Neigh   | 0.021688   | 0.021688   | 0.021688   |   0.0 | 23.02
Comm    | 0.0056933  | 0.0056933  | 0.0056933  |   0.0 |  6.04
Output  | 0          | 0          | 0          |   0.0 |  0.00
Modify  | 0          | 0          | 0          |   0.0 |  0.00
Other   |            | 0.02995    |            |       | 31.79

Nlocal:           1000 ave        1000 max        1000 min
Histogram: 1 0 0 0 0 0 0 0 0 0
Nghost:           7588 ave        7588 max        7588 min
Histogram: 1 0 0 0 0 0 0 0 0 0
Neighs:              0 ave           0 max           0 min
Histogram: 1 0 0 0 0 0 0 0 0 0
FullNghs:       596456 ave      596456 max      596456 min
Histogram: 1 0 0 0 0 0 0 0 0 0

Total # of neighbors = 596456
Ave neighs/atom = 596.456
Neighbor list builds = 13
Dangerous builds = 0
========== GPU Equilibration ==========
Generated 0 of 0 mixed pair_coeff terms from geometric mixing rule
Neighbor list info ...
  update: every = 1 steps, delay = 0 steps, check = yes
  max neighbors/atom: 2000, page size: 100000
  master list distance cutoff = 14
  ghost atom cutoff = 14
  binsize = 4, bins = 7 7 7
  2 neighbor lists, perpetual/occasional/extra = 1 1 0
  (1) pair lj/cut/kk, perpetual
      attributes: full, newton off, kokkos_device
      pair build: full/bin/kk/device
      stencil: full/bin/3d
      bin: kk/device
  (2) compute rdf, occasional
      attributes: half, newton off
      pair build: half/bin/atomonly/newtoff
      stencil: full/bin/3d
      bin: standard
Setting up Verlet run ...
  Unit style    : real
  Current step  : 0
  Time step     : 0.5
Per MPI rank memory allocation (min/avg/max) = 4.221 | 4.221 | 4.221 Mbytes
   Step          Temp          PotEng         KinEng         TotEng         Press          Volume        Density          CPU      
         0   423.15        -3304.9939      1260.0684     -2044.9255      4120.637       19168.952      6.0398583      0            
      1000   394.16894     -2254.5304      1173.7678     -1080.7626      23274.889      19168.952      6.0398583      0.37427596   
      2000   404.02109     -2181.2117      1203.1058     -978.10586      24622.171      19168.952      6.0398583      0.75066837   
      3000   421.6651      -2187.2624      1255.6467     -931.61579      24722.706      19168.952      6.0398583      1.1384121    
      4000   425.77545     -2144.2652      1267.8866     -876.37859      25392.715      19168.952      6.0398583      1.5146888    
      5000   422.82153     -2158.3875      1259.0903     -899.29717      25233.747      19168.952      6.0398583      1.8910671    
      6000   402.71275     -2068.4063      1199.2098     -869.19653      26718.497      19168.952      6.0398583      2.2671508    
      7000   407.54146     -2119.0839      1213.5889     -905.49505      25779.415      19168.952      6.0398583      2.6423902    
      8000   425.31046     -2120.7246      1266.5019     -854.22271      25900.597      19168.952      6.0398583      3.0186463    
      9000   435.84262     -2095.3936      1297.8649     -797.52867      26454.934      19168.952      6.0398583      3.407855     
     10000   441.62612     -2105.8259      1315.0872     -790.73875      26262.718      19168.952      6.0398583      3.7834069    
Loop time of 3.78341 on 1 procs for 10000 steps with 1000 atoms

Performance: 114.183 ns/day, 0.210 hours/ns, 2643.117 timesteps/s, 2.643 Matom-step/s
99.9% CPU use with 1 MPI tasks x 1 OpenMP threads

MPI task timing breakdown:
Section |  min time  |  avg time  |  max time  |%varavg| %total
---------------------------------------------------------------
Pair    | 0.12874    | 0.12874    | 0.12874    |   0.0 |  3.40
Neigh   | 0.070349   | 0.070349   | 0.070349   |   0.0 |  1.86
Comm    | 0.052793   | 0.052793   | 0.052793   |   0.0 |  1.40
Output  | 0.0018956  | 0.0018956  | 0.0018956  |   0.0 |  0.05
Modify  | 3.2782     | 3.2782     | 3.2782     |   0.0 | 86.65
Other   |            | 0.2514     |            |       |  6.65

Nlocal:           1000 ave        1000 max        1000 min
Histogram: 1 0 0 0 0 0 0 0 0 0
Nghost:           7542 ave        7542 max        7542 min
Histogram: 1 0 0 0 0 0 0 0 0 0
Neighs:         445145 ave      445145 max      445145 min
Histogram: 1 0 0 0 0 0 0 0 0 0
FullNghs:       598142 ave      598142 max      598142 min
Histogram: 1 0 0 0 0 0 0 0 0 0

Total # of neighbors = 598142
Ave neighs/atom = 598.142
Neighbor list builds = 41
Dangerous builds = 0
Generated 0 of 0 mixed pair_coeff terms from geometric mixing rule
Setting up Verlet run ...
  Unit style    : real
  Current step  : 10000
  Time step     : 2
Per MPI rank memory allocation (min/avg/max) = 5.747 | 5.747 | 5.747 Mbytes
   Step          Temp          PotEng         KinEng         TotEng         Press          Volume        Density          CPU      
     10000   441.62612     -2105.8259      1315.0872     -790.73875      26262.718      19168.952      6.0398583      0            
     11000   409.23533     -2126.0973      1218.6329     -907.46432      25720.816      19168.952      6.0398583      0.4647485    
     12000   425.72069     -2120.0277      1267.7235     -852.30421      26006.427      19168.952      6.0398583      0.93480052   
     13000   434.98626     -2125.5288      1295.3148     -830.21395      25842.724      19168.952      6.0398583      1.4010947    
     14000   407.45117     -2125.5322      1213.32       -912.21216      25672.722      19168.952      6.0398583      1.8676569    
     15000   419.06499     -2096.4359      1247.904      -848.5319       26382.911      19168.952      6.0398583      2.3363081    
     16000   420.45436     -2143.7172      1252.0413     -891.67591      25357.757      19168.952      6.0398583      2.8047683    
     17000   405.04885     -2110.0631      1206.1663     -903.89677      25817.052      19168.952      6.0398583      3.2731869    
     18000   419.3812      -2166.6333      1248.8456     -917.78771      24980.819      19168.952      6.0398583      3.7427945    
     19000   443.15152     -2096.649       1319.6296     -777.01947      26487.961      19168.952      6.0398583      4.2127601    
     20000   441.09244     -2124.0062      1313.498      -810.50825      25953.105      19168.952      6.0398583      4.6800761    
     21000   423.35432     -2118.9911      1260.6769     -858.31422      25797.975      19168.952      6.0398583      5.1469053    
     22000   415.54279     -2130.6488      1237.4155     -893.23334      25659.096      19168.952      6.0398583      5.6138153    
     23000   417.37471     -2064.9778      1242.8706     -822.10719      26819.447      19168.952      6.0398583      6.0802571    
     24000   439.15216     -2127.0909      1307.7201     -819.37078      25945.512      19168.952      6.0398583      6.5447111    
     25000   421.04391     -2113.8506      1253.7969     -860.05374      26000.043      19168.952      6.0398583      7.0114465    
     26000   440.70759     -2117.4566      1312.352      -805.10468      25974.726      19168.952      6.0398583      7.480318     
     27000   412.23751     -2148.7854      1227.5729     -921.21251      25266.47       19168.952      6.0398583      7.9494268    
     28000   415.82074     -2121.953       1238.2431     -883.70985      25876.678      19168.952      6.0398583      8.4157921    
     29000   431.38625     -2126.4127      1284.5946     -841.81812      25826.918      19168.952      6.0398583      8.8835998    
     30000   416.86072     -2118.0423      1241.34       -876.70221      25873.263      19168.952      6.0398583      9.34704      
     31000   437.32324     -2120.5718      1302.2739     -818.29785      26048.586      19168.952      6.0398583      9.8149112    
     32000   425.85696     -2135.9536      1268.1293     -867.82426      25648.881      19168.952      6.0398583      10.280309    
     33000   448.28028     -2176.5454      1334.9021     -841.64328      25048.848      19168.952      6.0398583      10.747349    
     34000   421.11332     -2082.8204      1254.0036     -828.81679      26478.961      19168.952      6.0398583      11.216035    
     35000   420.90825     -2109.3821      1253.3929     -855.98923      26113.039      19168.952      6.0398583      11.680471    
     36000   414.9631      -2131.2431      1235.6893     -895.55381      25706.172      19168.952      6.0398583      12.151198    
     37000   401.88252     -2118.0648      1196.7375     -921.32726      25850.95       19168.952      6.0398583      12.618666    
     38000   430.01697     -2089.0813      1280.5171     -808.5642       26512.537      19168.952      6.0398583      13.084261    
     39000   421.93057     -2176.7471      1256.4372     -920.30992      24888.831      19168.952      6.0398583      13.551473    
     40000   431.29943     -2116.3         1284.336      -831.96395      25994.521      19168.952      6.0398583      14.022332    
     41000   403.43434     -2110.6725      1201.3586     -909.3139       25976.311      19168.952      6.0398583      14.488622    
     42000   422.86947     -2125.0129      1259.2331     -865.77982      25913.98       19168.952      6.0398583      14.955716    
     43000   429.68138     -2135.5755      1279.5178     -856.05773      25624.261      19168.952      6.0398583      15.420513    
     44000   418.53075     -2184.7591      1246.3131     -938.44601      24686.5        19168.952      6.0398583      15.889019    
     45000   421.17258     -2092.1109      1254.18       -837.93084      26302.088      19168.952      6.0398583      16.353448    
     46000   419.91011     -2119.107       1250.4206     -868.68641      25883.247      19168.952      6.0398583      16.822426    
     47000   423.1997      -2101.4545      1260.2164     -841.23802      26180.946      19168.952      6.0398583      17.285351    
     48000   425.7064      -2143.7688      1267.681      -876.0878       25514.438      19168.952      6.0398583      17.754692    
     49000   418.08724     -2159.036       1244.9924     -914.04357      25094.67       19168.952      6.0398583      18.223329    
     50000   416.47093     -2129.3793      1240.1793     -889.20001      25695.375      19168.952      6.0398583      18.689716    
Loop time of 18.6897 on 1 procs for 40000 steps with 1000 atoms

Performance: 369.829 ns/day, 0.065 hours/ns, 2140.214 timesteps/s, 2.140 Matom-step/s
99.9% CPU use with 1 MPI tasks x 1 OpenMP threads

MPI task timing breakdown:
Section |  min time  |  avg time  |  max time  |%varavg| %total
---------------------------------------------------------------
Pair    | 0.55644    | 0.55644    | 0.55644    |   0.0 |  2.98
Neigh   | 1.0995     | 1.0995     | 1.0995     |   0.0 |  5.88
Comm    | 0.3471     | 0.3471     | 0.3471     |   0.0 |  1.86
Output  | 0.006902   | 0.006902   | 0.006902   |   0.0 |  0.04
Modify  | 15.619     | 15.619     | 15.619     |   0.0 | 83.57
Other   |            | 1.061      |            |       |  5.68

Nlocal:           1000 ave        1000 max        1000 min
Histogram: 1 0 0 0 0 0 0 0 0 0
Nghost:           7637 ave        7637 max        7637 min
Histogram: 1 0 0 0 0 0 0 0 0 0
Neighs:         446421 ave      446421 max      446421 min
Histogram: 1 0 0 0 0 0 0 0 0 0
FullNghs:       598326 ave      598326 max      598326 min
Histogram: 1 0 0 0 0 0 0 0 0 0

Total # of neighbors = 598326
Ave neighs/atom = 598.326
Neighbor list builds = 647
Dangerous builds = 0
========== GPU Production run ==========
Generated 0 of 0 mixed pair_coeff terms from geometric mixing rule
Neighbor list info ...
  update: every = 1 steps, delay = 0 steps, check = yes
  max neighbors/atom: 2000, page size: 100000
  master list distance cutoff = 14
  ghost atom cutoff = 14
  binsize = 4, bins = 7 7 7
  2 neighbor lists, perpetual/occasional/extra = 1 1 0
  (1) pair lj/cut/kk, perpetual
      attributes: full, newton off, kokkos_device
      pair build: full/bin/kk/device
      stencil: full/bin/3d
      bin: kk/device
  (2) compute rdf, occasional
      attributes: half, newton off
      pair build: half/bin/atomonly/newtoff
      stencil: full/bin/3d
      bin: standard
Setting up Verlet run ...
  Unit style    : real
  Current step  : 50000
  Time step     : 2
Per MPI rank memory allocation (min/avg/max) = 4.221 | 4.221 | 4.221 Mbytes
   Step          Temp          PotEng         KinEng         TotEng         Press          Volume        Density          CPU      
     50000   416.47093     -2129.3793      1240.1793     -889.20001      25695.375      19168.952      6.0398583      0            
     51000   408.04125     -2104.4653      1215.0772     -889.38817      26027.64       19168.952      6.0398583      0.46858984   
     52000   415.79801     -2091.9457      1238.1755     -853.77027      26282.451      19168.952      6.0398583      0.93742276   
     53000   413.11497     -2112.3027      1230.1858     -882.11688      25920.477      19168.952      6.0398583      1.4054412    
     54000   411.99126     -2128.1828      1226.8396     -901.34319      25644.505      19168.952      6.0398583      1.8736907    
     55000   409.14513     -2106.7867      1218.3643     -888.42235      26082.304      19168.952      6.0398583      2.3424314    
     56000   427.16645     -2116.3377      1272.0287     -844.30898      26008.033      19168.952      6.0398583      2.8121548    
     57000   427.22353     -2148.935       1272.1987     -876.73629      25384.439      19168.952      6.0398583      3.2799793    
     58000   422.81571     -2139.2709      1259.073      -880.1979       25544.961      19168.952      6.0398583      3.749612     
     59000   403.83459     -2128.8539      1202.5505     -926.30339      25543.288      19168.952      6.0398583      4.2181252    
     60000   425.1595      -2096.3045      1266.0524     -830.25211      26195.821      19168.952      6.0398583      4.6868547    
     61000   424.64931     -2114.1303      1264.5331     -849.59719      25999.541      19168.952      6.0398583      5.1588552    
     62000   424.69127     -2108.9954      1264.6581     -844.33729      26153.169      19168.952      6.0398583      5.6258102    
     63000   413.5796      -2121.8156      1231.5694     -890.24614      25701.77       19168.952      6.0398583      6.0941714    
     64000   408.79531     -2151.6203      1217.3226     -934.29765      25263.94       19168.952      6.0398583      6.5609536    
     65000   411.39211     -2137.5532      1225.0555     -912.49776      25465.624      19168.952      6.0398583      7.0274349    
     66000   438.94308     -2139.1759      1307.0975     -832.07833      25659.445      19168.952      6.0398583      7.4944538    
     67000   418.90514     -2138.7274      1247.428      -891.29939      25530.404      19168.952      6.0398583      7.9624613    
     68000   434.0195      -2102.7116      1292.436      -810.2756       26299.296      19168.952      6.0398583      8.431069     
     69000   432.98824     -2119.9015      1289.365      -830.53644      25984.723      19168.952      6.0398583      8.8992346    
     70000   418.37951     -2125.1944      1245.8628     -879.33168      25785.42       19168.952      6.0398583      9.3672706    
     71000   417.19036     -2090.7333      1242.3216     -848.41168      26447.79       19168.952      6.0398583      9.8370878    
     72000   425.97587     -2094.6092      1268.4834     -826.12577      26438.106      19168.952      6.0398583      10.30642     
     73000   420.14687     -2115.3415      1251.1256     -864.21583      25889.822      19168.952      6.0398583      10.775164    
     74000   424.62043     -2115.584       1264.4471     -851.13682      25910.553      19168.952      6.0398583      11.245844    
     75000   418.76125     -2056.7704      1246.9995     -809.77093      26839.532      19168.952      6.0398583      11.714366    
     76000   408.16363     -2096.0359      1215.4416     -880.59435      26212.61       19168.952      6.0398583      12.182098    
     77000   406.23917     -2119.7751      1209.7109     -910.0642       25806.02       19168.952      6.0398583      12.650183    
     78000   423.76602     -2115.1177      1261.9029     -853.21481      25870.151      19168.952      6.0398583      13.120321    
     79000   442.74659     -2099.5036      1318.4237     -781.07989      26458.349      19168.952      6.0398583      13.586274    
     80000   430.73708     -2099.0175      1282.6615     -816.35597      26364.174      19168.952      6.0398583      14.056893    
     81000   425.28437     -2095.189       1266.4242     -828.76471      26322.057      19168.952      6.0398583      14.527426    
     82000   442.04121     -2083.8357      1316.3232     -767.51242      26768.65       19168.952      6.0398583      14.996548    
     83000   429.63652     -2087.0623      1279.3842     -807.6781       26527.075      19168.952      6.0398583      15.467545    
     84000   421.09503     -2100.3692      1253.9491     -846.42012      26210.587      19168.952      6.0398583      15.934482    
     85000   427.85746     -2092.1907      1274.0865     -818.10424      26446.627      19168.952      6.0398583      16.406076    
     86000   412.13017     -2155.1051      1227.2533     -927.85187      25193.081      19168.952      6.0398583      16.875975    
     87000   406.07633     -2119.8284      1209.226      -910.60238      25788.026      19168.952      6.0398583      17.344226    
     88000   436.75642     -2116.4883      1300.586      -815.90223      26045.642      19168.952      6.0398583      17.810024    
     89000   408.67458     -2116.2922      1216.9631     -899.32909      25783.65       19168.952      6.0398583      18.282194    
     90000   426.56037     -2129.3957      1270.2239     -859.17177      25787.025      19168.952      6.0398583      18.751716    
     91000   425.27279     -2079.7968      1266.3897     -813.40707      26631.559      19168.952      6.0398583      19.220553    
     92000   414.8241      -2198.7008      1235.2753     -963.42543      24458.511      19168.952      6.0398583      19.691516    
     93000   414.66948     -2110.3713      1234.8149     -875.55641      26004.06       19168.952      6.0398583      20.160539    
     94000   417.34292     -2094.8325      1242.7759     -852.05658      26271.825      19168.952      6.0398583      20.627562    
     95000   437.67575     -2074.0797      1303.3236     -770.75607      26852.715      19168.952      6.0398583      21.098235    
     96000   418.55501     -2134.9605      1246.3853     -888.57517      25597.151      19168.952      6.0398583      21.567993    
     97000   432.4993      -2102.0464      1287.909      -814.13734      26259.036      19168.952      6.0398583      22.035064    
     98000   421.88945     -2151.1762      1256.3147     -894.86144      25225.225      19168.952      6.0398583      22.499968    
     99000   439.33976     -2123.1929      1308.2788     -814.91411      25992.344      19168.952      6.0398583      22.969599    
    100000   432.2777      -2114.2124      1287.2492     -826.96318      26090.657      19168.952      6.0398583      23.440366    
    101000   429.50811     -2101.7001      1279.0018     -822.69829      26252.984      19168.952      6.0398583      23.909       
    102000   424.95176     -2138.0423      1265.4338     -872.60851      25706.19       19168.952      6.0398583      24.377782    
    103000   426.33757     -2170.0736      1269.5605     -900.51314      25087.08       19168.952      6.0398583      24.845389    
    104000   416.01575     -2083.6484      1238.8239     -844.82451      26485.865      19168.952      6.0398583      25.314141    
    105000   431.17392     -2134.9485      1283.9623     -850.9862       25655.134      19168.952      6.0398583      25.780683    
    106000   408.77557     -2153.7474      1217.2638     -936.48352      25269.227      19168.952      6.0398583      26.251761    
    107000   426.02039     -2149.6203      1268.616      -881.00435      25396.704      19168.952      6.0398583      26.721931    
    108000   429.93021     -2138.0097      1280.2587     -857.75095      25586.926      19168.952      6.0398583      27.190465    
    109000   414.93466     -2080.5445      1235.6046     -844.93991      26515.286      19168.952      6.0398583      27.660868    
    110000   426.59875     -2087.5925      1270.3382     -817.25433      26488.941      19168.952      6.0398583      28.131279    
    111000   420.8432      -2100.776       1253.1992     -847.57683      26168.611      19168.952      6.0398583      28.601687    
    112000   430.67329     -2128.0312      1282.4715     -845.55965      25771.325      19168.952      6.0398583      29.069269    
    113000   415.28082     -2107.8031      1236.6354     -871.16776      25973.754      19168.952      6.0398583      29.538054    
    114000   413.53221     -2185.976       1231.4283     -954.54773      24649.67       19168.952      6.0398583      30.009685    
    115000   436.39713     -2103.9974      1299.5161     -804.48129      26284.408      19168.952      6.0398583      30.475751    
    116000   420.38617     -2120.9319      1251.8382     -869.0937       25835.609      19168.952      6.0398583      30.944294    
    117000   409.60895     -2046.3212      1219.7455     -826.57566      27064.01       19168.952      6.0398583      31.415365    
    118000   425.85259     -2150.0969      1268.1163     -881.98057      25303.207      19168.952      6.0398583      31.883853    
    119000   422.29431     -2140.1276      1257.5204     -882.60728      25459.488      19168.952      6.0398583      32.353542    
    120000   432.26585     -2129.4847      1287.2139     -842.27083      25705.69       19168.952      6.0398583      32.822312    
    121000   418.55593     -2146.0124      1246.3881     -899.62434      25419.696      19168.952      6.0398583      33.29164     
    122000   412.90799     -2095.1911      1229.5695     -865.62159      26236.739      19168.952      6.0398583      33.76183     
    123000   427.39623     -2155.901       1272.713      -883.18802      25299.822      19168.952      6.0398583      34.232425    
    124000   426.02438     -2111.9379      1268.6279     -843.31004      26010.294      19168.952      6.0398583      34.699482    
    125000   428.13253     -2079.102       1274.9056     -804.19639      26719.476      19168.952      6.0398583      35.168896    
    126000   434.61016     -2096.5606      1294.1949     -802.36572      26332.202      19168.952      6.0398583      35.635883    
    127000   435.52607     -2122.6066      1296.9223     -825.68431      25913.227      19168.952      6.0398583      36.104323    
    128000   411.19767     -2148.9417      1224.4764     -924.46522      25213.048      19168.952      6.0398583      36.574299    
    129000   440.18985     -2119.9656      1310.8102     -809.15537      26062.9        19168.952      6.0398583      37.041938    
    130000   423.10669     -2118.8666      1259.9395     -858.92709      25932.255      19168.952      6.0398583      37.512463    
    131000   406.17039     -2131.7262      1209.5061     -922.22019      25514.729      19168.952      6.0398583      37.982744    
    132000   426.11352     -2146.7922      1268.8933     -877.89894      25404.553      19168.952      6.0398583      38.451235    
    133000   409.27736     -2083.6491      1218.7581     -864.89098      26414.681      19168.952      6.0398583      38.920524    
    134000   404.35686     -2093.2989      1204.1057     -889.19322      26213.44       19168.952      6.0398583      39.388473    
    135000   412.81207     -2154.4397      1229.2838     -925.15589      25179.948      19168.952      6.0398583      39.857479    
    136000   419.00132     -2132.2344      1247.7144     -884.51999      25648.708      19168.952      6.0398583      40.325131    
    137000   416.40785     -2109.5056      1239.9915     -869.51417      26022.228      19168.952      6.0398583      40.795389    
    138000   431.11741     -2128.6539      1283.794      -844.85989      25800.289      19168.952      6.0398583      41.262465    
    139000   432.22476     -2112.5731      1287.0915     -825.48155      26020.672      19168.952      6.0398583      41.731831    
    140000   424.55387     -2106.69        1264.2489     -842.44107      26108.854      19168.952      6.0398583      42.200603    
    141000   423.00901     -2100.4686      1259.6486     -840.81995      26262.343      19168.952      6.0398583      42.669106    
    142000   408.83876     -2142.5606      1217.452      -925.10859      25378.422      19168.952      6.0398583      43.136784    
    143000   428.20467     -2119.4283      1275.1204     -844.30789      25973.457      19168.952      6.0398583      43.605774    
    144000   405.5321      -2148.7111      1207.6053     -941.1058       25208.213      19168.952      6.0398583      44.076035    
    145000   424.63072     -2123.7733      1264.4778     -859.29556      25829.894      19168.952      6.0398583      44.547415    
    146000   431.38078     -2130.486       1284.5783     -845.90769      25846.437      19168.952      6.0398583      45.016843    
    147000   419.69591     -2084.6221      1249.7828     -834.83936      26436.984      19168.952      6.0398583      45.486788    
    148000   424.59635     -2142.5765      1264.3754     -878.20112      25365.986      19168.952      6.0398583      45.95516     
    149000   414.55038     -2101.0321      1234.4603     -866.57182      26195.257      19168.952      6.0398583      46.423156    
    150000   417.52492     -2143.5059      1243.3179     -900.18795      25339.802      19168.952      6.0398583      46.891469    
Loop time of 46.8928 on 1 procs for 100000 steps with 1000 atoms

Performance: 368.500 ns/day, 0.065 hours/ns, 2132.523 timesteps/s, 2.133 Matom-step/s
99.8% CPU use with 1 MPI tasks x 1 OpenMP threads

MPI task timing breakdown:
Section |  min time  |  avg time  |  max time  |%varavg| %total
---------------------------------------------------------------
Pair    | 1.3959     | 1.3959     | 1.3959     |   0.0 |  2.98
Neigh   | 2.7425     | 2.7425     | 2.7425     |   0.0 |  5.85
Comm    | 0.86774    | 0.86774    | 0.86774    |   0.0 |  1.85
Output  | 0.1332     | 0.1332     | 0.1332     |   0.0 |  0.28
Modify  | 39.1       | 39.1       | 39.1       |   0.0 | 83.38
Other   |            | 2.654      |            |       |  5.66

Nlocal:           1000 ave        1000 max        1000 min
Histogram: 1 0 0 0 0 0 0 0 0 0
Nghost:           7570 ave        7570 max        7570 min
Histogram: 1 0 0 0 0 0 0 0 0 0
Neighs:         446202 ave      446202 max      446202 min
Histogram: 1 0 0 0 0 0 0 0 0 0
FullNghs:       598334 ave      598334 max      598334 min
Histogram: 1 0 0 0 0 0 0 0 0 0

Total # of neighbors = 598334
Ave neighs/atom = 598.334
Neighbor list builds = 1619
Dangerous builds = 0
========== GPU Simulation completed ==========
=========================================
FINAL RESULTS:
  Density:     6.0398582910241 g/cm^3
  Temperature: 417.524922336749 K
  Pressure:    25339.8018121814 bar
=========================================
System init for write_data ...
Generated 0 of 0 mixed pair_coeff terms from geometric mixing rule
System init for write_restart ...
Generated 0 of 0 mixed pair_coeff terms from geometric mixing rule
RDF written to rdf.dat
Final structure written to outputs/final_structure_ga_lj.data
Trajectory written to dump.ga.lj.lammpstrj
Total wall time: 0:01:09
