LAMMPS (22 Jul 2025 - Update 2)
KOKKOS mode with Kokkos version 4.6.2 is enabled
  will use up to 1 GPU(s) per node
Kokkos::Cuda::initialize WARNING: running kernels compiled for compute capability 8.0 on device with compute capability 8.6 , this will likely reduce potential performance.
  using 1 OpenMP thread(s) per MPI task
Reading data file ...
  orthogonal box = (0 0 0) to (26.762877 26.762877 26.762877)
  1 by 1 by 1 MPI processor grid
  reading atoms ...
  1000 atoms
  read_data CPU = 0.006 seconds
========== Energy Minimization ==========
Generated 0 of 0 mixed pair_coeff terms from geometric mixing rule
Neighbor list info ...
  update: every = 1 steps, delay = 0 steps, check = yes
  max neighbors/atom: 2000, page size: 100000
  master list distance cutoff = 14
  ghost atom cutoff = 14
  binsize = 4, bins = 7 7 7
  1 neighbor lists, perpetual/occasional/extra = 1 0 0
  (1) pair lj/cut/kk, perpetual
      attributes: full, newton off, kokkos_device
      pair build: full/bin/kk/device
      stencil: full/bin/3d
      bin: kk/device
Setting up cg/kk style minimization ...
  Unit style    : real
  Current step  : 0
WARNING: Fix MINIMIZE/kk not compatible with sending data in Kokkos communication (src/KOKKOS/comm_kokkos.cpp:767)
WARNING: Fix with atom-based arrays not compatible with sending data in Kokkos communication, switching to classic exchange/border communication (src/KOKKOS/comm_kokkos.cpp:780)
WARNING: Fix MINIMIZE/kk not compatible with Kokkos sorting on device (src/KOKKOS/atom_kokkos.cpp:212)
WARNING: Fix with atom-based arrays not compatible with Kokkos sorting on device, switching to classic host sorting (src/KOKKOS/atom_kokkos.cpp:218)
Per MPI rank memory allocation (min/avg/max) = 4.633 | 4.633 | 4.633 Mbytes
   Step          Temp          PotEng         KinEng         TotEng         Press          Volume        Density          CPU      
         0   423.15         4.1675535e+14  1260.0684      4.1675535e+14  5.9630291e+15  19168.952      6.0398583      0            
       203   423.15        -3304.9939      1260.0684     -2044.9255      4120.6371      19168.952      6.0398583      0.094776287  
Loop time of 0.0947813 on 1 procs for 203 steps with 1000 atoms

99.2% CPU use with 1 MPI tasks x 1 OpenMP threads

Minimization stats:
  Stopping criterion = energy tolerance
  Energy initial, next-to-last, final = 
       416755349294808  -3304.66652265764   -3304.9939293312
  Force two-norm initial, final = 4.020161e+16 3.6474693
  Force max component initial, final = 2.2652674e+16 0.70331454
  Final line search alpha, max atom move = 0.090354521 0.063547648
  Iterations, force evaluations = 203 289

MPI task timing breakdown:
Section |  min time  |  avg time  |  max time  |%varavg| %total
---------------------------------------------------------------
Pair    | 0.03696    | 0.03696    | 0.03696    |   0.0 | 39.00
Neigh   | 0.021655   | 0.021655   | 0.021655   |   0.0 | 22.85
Comm    | 0.0059081  | 0.0059081  | 0.0059081  |   0.0 |  6.23
Output  | 0          | 0          | 0          |   0.0 |  0.00
Modify  | 0          | 0          | 0          |   0.0 |  0.00
Other   |            | 0.03026    |            |       | 31.92

Nlocal:           1000 ave        1000 max        1000 min
Histogram: 1 0 0 0 0 0 0 0 0 0
Nghost:           7588 ave        7588 max        7588 min
Histogram: 1 0 0 0 0 0 0 0 0 0
Neighs:              0 ave           0 max           0 min
Histogram: 1 0 0 0 0 0 0 0 0 0
FullNghs:       596456 ave      596456 max      596456 min
Histogram: 1 0 0 0 0 0 0 0 0 0

Total # of neighbors = 596456
Ave neighs/atom = 596.456
Neighbor list builds = 13
Dangerous builds = 0
========== GPU Equilibration ==========
Generated 0 of 0 mixed pair_coeff terms from geometric mixing rule
Neighbor list info ...
  update: every = 1 steps, delay = 0 steps, check = yes
  max neighbors/atom: 2000, page size: 100000
  master list distance cutoff = 14
  ghost atom cutoff = 14
  binsize = 4, bins = 7 7 7
  2 neighbor lists, perpetual/occasional/extra = 1 1 0
  (1) pair lj/cut/kk, perpetual
      attributes: full, newton off, kokkos_device
      pair build: full/bin/kk/device
      stencil: full/bin/3d
      bin: kk/device
  (2) compute rdf, occasional
      attributes: half, newton off
      pair build: half/bin/atomonly/newtoff
      stencil: full/bin/3d
      bin: standard
Setting up Verlet run ...
  Unit style    : real
  Current step  : 0
  Time step     : 0.5
Per MPI rank memory allocation (min/avg/max) = 4.221 | 4.221 | 4.221 Mbytes
   Step          Temp          PotEng         KinEng         TotEng         Press          Volume        Density          CPU      
         0   423.15        -3304.9939      1260.0684     -2044.9255      4120.6371      19168.952      6.0398583      0            
      1000   394.16894     -2254.5304      1173.7678     -1080.7626      23274.889      19168.952      6.0398583      0.37513053   
      2000   404.02112     -2181.2116      1203.1059     -978.1057       24622.173      19168.952      6.0398583      0.75123746   
      3000   421.66478     -2187.2622      1255.6457     -931.61652      24722.698      19168.952      6.0398583      1.1398182    
      4000   425.77507     -2144.2684      1267.8855     -876.3829       25392.709      19168.952      6.0398583      1.5033754    
      5000   422.83291     -2158.442       1259.1242     -899.31782      25232.844      19168.952      6.0398583      1.8922712    
      6000   402.5908      -2068.3266      1198.8466     -869.47997      26718.328      19168.952      6.0398583      2.2686376    
      7000   407.98666     -2119.9139      1214.9146     -904.99932      25773.704      19168.952      6.0398583      2.6458175    
      8000   427.04771     -2115.4947      1271.6752     -843.8195       26029.429      19168.952      6.0398583      3.0224583    
      9000   432.0788      -2080.5574      1286.6569     -793.90051      26640.372      19168.952      6.0398583      3.4126343    
     10000   410.118       -2154.1927      1221.2614     -932.93132      25099.966      19168.952      6.0398583      3.7896294    
Loop time of 3.78963 on 1 procs for 10000 steps with 1000 atoms

Performance: 113.995 ns/day, 0.211 hours/ns, 2638.777 timesteps/s, 2.639 Matom-step/s
99.9% CPU use with 1 MPI tasks x 1 OpenMP threads

MPI task timing breakdown:
Section |  min time  |  avg time  |  max time  |%varavg| %total
---------------------------------------------------------------
Pair    | 0.13535    | 0.13535    | 0.13535    |   0.0 |  3.57
Neigh   | 0.070036   | 0.070036   | 0.070036   |   0.0 |  1.85
Comm    | 0.053758   | 0.053758   | 0.053758   |   0.0 |  1.42
Output  | 0.0016714  | 0.0016714  | 0.0016714  |   0.0 |  0.04
Modify  | 3.2762     | 3.2762     | 3.2762     |   0.0 | 86.45
Other   |            | 0.2527     |            |       |  6.67

Nlocal:           1000 ave        1000 max        1000 min
Histogram: 1 0 0 0 0 0 0 0 0 0
Nghost:           7584 ave        7584 max        7584 min
Histogram: 1 0 0 0 0 0 0 0 0 0
Neighs:         445774 ave      445774 max      445774 min
Histogram: 1 0 0 0 0 0 0 0 0 0
FullNghs:       598306 ave      598306 max      598306 min
Histogram: 1 0 0 0 0 0 0 0 0 0

Total # of neighbors = 598306
Ave neighs/atom = 598.306
Neighbor list builds = 41
Dangerous builds = 0
Generated 0 of 0 mixed pair_coeff terms from geometric mixing rule
Setting up Verlet run ...
  Unit style    : real
  Current step  : 10000
  Time step     : 2
Per MPI rank memory allocation (min/avg/max) = 5.747 | 5.747 | 5.747 Mbytes
   Step          Temp          PotEng         KinEng         TotEng         Press          Volume        Density          CPU      
     10000   410.118       -2154.1927      1221.2614     -932.93132      25099.966      19168.952      6.0398583      0            
     11000   443.44983     -2137.8126      1320.5179     -817.2947       25734.284      19168.952      6.0398583      0.46759058   
     12000   407.83845     -2115.4989      1214.4733     -901.02569      25882.364      19168.952      6.0398583      0.93541714   
     13000   426.14335     -2183.0946      1268.9821     -914.11252      24746.367      19168.952      6.0398583      1.4024948    
     14000   436.01995     -2152.9247      1298.393      -854.53171      25461.936      19168.952      6.0398583      1.8728839    
     15000   425.53716     -2118.1176      1267.177      -850.94055      25964.139      19168.952      6.0398583      2.3402664    
     16000   409.97382     -2118.0728      1220.832      -897.24082      25776.297      19168.952      6.0398583      2.8071665    
     17000   419.43023     -2139.0479      1248.9916     -890.05632      25478.571      19168.952      6.0398583      3.2748886    
     18000   414.9185      -2080.5712      1235.5564     -845.01479      26558.347      19168.952      6.0398583      3.7447689    
     19000   396.69268     -2151.3771      1181.283      -970.09408      25162.629      19168.952      6.0398583      4.211401     
     20000   428.78249     -2137.4101      1276.841      -860.56907      25614.591      19168.952      6.0398583      4.6797205    
     21000   414.94088     -2163.445       1235.6231     -927.82196      24972.977      19168.952      6.0398583      5.1459719    
     22000   423.03226     -2146.6523      1259.7178     -886.9345       25366.117      19168.952      6.0398583      5.6131697    
     23000   434.6476      -2110.615       1294.3063     -816.30861      26024.391      19168.952      6.0398583      6.0807691    
     24000   419.15335     -2118.3535      1248.1671     -870.18641      25973.228      19168.952      6.0398583      6.5485355    
     25000   414.95768     -2124.1619      1235.6731     -888.48879      25807.587      19168.952      6.0398583      7.0172918    
     26000   430.41886     -2127.7205      1281.7139     -846.00661      25793.645      19168.952      6.0398583      7.4859337    
     27000   420.30835     -2163.6316      1251.6065     -912.02505      25045.031      19168.952      6.0398583      7.9539796    
     28000   420.23464     -2112.2821      1251.387      -860.89507      26048.524      19168.952      6.0398583      8.4243478    
     29000   428.70162     -2134.8465      1276.6002     -858.24625      25579.43       19168.952      6.0398583      8.8923499    
     30000   414.96506     -2070.1165      1235.6951     -834.42145      26774.941      19168.952      6.0398583      9.3593433    
     31000   416.15913     -2083.6835      1239.2508     -844.43265      26396.95       19168.952      6.0398583      9.828506     
     32000   421.8276      -2091.1316      1256.1306     -835.00106      26321.057      19168.952      6.0398583      10.293182    
     33000   421.23111     -2129.1273      1254.3543     -874.77295      25662.216      19168.952      6.0398583      10.764057    
     34000   403.23021     -2164.4586      1200.7507     -963.70785      25030.546      19168.952      6.0398583      11.231957    
     35000   426.70996     -2047.7168      1270.6694     -777.04736      27089.227      19168.952      6.0398583      11.69981     
     36000   432.43344     -2119.3771      1287.7129     -831.66419      26058.856      19168.952      6.0398583      12.168557    
     37000   439.76414     -2148.3624      1309.5425     -838.81987      25439.255      19168.952      6.0398583      12.63629     
     38000   434.3894      -2095.1898      1293.5375     -801.65233      26300.967      19168.952      6.0398583      13.105615    
     39000   430.58552     -2191.1301      1282.2102     -908.91991      24667.223      19168.952      6.0398583      13.574164    
     40000   412.88466     -2089.593       1229.5        -860.09298      26343.467      19168.952      6.0398583      14.045384    
     41000   444.19211     -2145.374       1322.7282     -822.64573      25545.892      19168.952      6.0398583      14.515552    
     42000   445.47503     -2120.4182      1326.5486     -793.8696       26073.255      19168.952      6.0398583      14.982917    
     43000   414.76728     -2135.4374      1235.1061     -900.33122      25541.259      19168.952      6.0398583      15.450029    
     44000   425.74009     -2090.5882      1267.7813     -822.80697      26375.175      19168.952      6.0398583      15.920249    
     45000   430.04221     -2121.4997      1280.5923     -840.90743      25926.656      19168.952      6.0398583      16.391543    
     46000   397.97405     -2110.5359      1185.0988     -925.43716      25834.522      19168.952      6.0398583      16.859494    
     47000   431.13942     -2146.5252      1283.8596     -862.66568      25528.601      19168.952      6.0398583      17.327126    
     48000   418.68083     -2173.6898      1246.76       -926.92975      24804.319      19168.952      6.0398583      17.797399    
     49000   427.63185     -2149.763       1273.4146     -876.34839      25252.631      19168.952      6.0398583      18.265761    
     50000   408.28436     -2158.2377      1215.8011     -942.43661      25081.763      19168.952      6.0398583      18.733689    
Loop time of 18.7337 on 1 procs for 40000 steps with 1000 atoms

Performance: 368.961 ns/day, 0.065 hours/ns, 2135.190 timesteps/s, 2.135 Matom-step/s
99.9% CPU use with 1 MPI tasks x 1 OpenMP threads

MPI task timing breakdown:
Section |  min time  |  avg time  |  max time  |%varavg| %total
---------------------------------------------------------------
Pair    | 0.58268    | 0.58268    | 0.58268    |   0.0 |  3.11
Neigh   | 1.0966     | 1.0966     | 1.0966     |   0.0 |  5.85
Comm    | 0.35611    | 0.35611    | 0.35611    |   0.0 |  1.90
Output  | 0.0068411  | 0.0068411  | 0.0068411  |   0.0 |  0.04
Modify  | 15.628     | 15.628     | 15.628     |   0.0 | 83.42
Other   |            | 1.063      |            |       |  5.68

Nlocal:           1000 ave        1000 max        1000 min
Histogram: 1 0 0 0 0 0 0 0 0 0
Nghost:           7548 ave        7548 max        7548 min
Histogram: 1 0 0 0 0 0 0 0 0 0
Neighs:         445334 ave      445334 max      445334 min
Histogram: 1 0 0 0 0 0 0 0 0 0
FullNghs:       597806 ave      597806 max      597806 min
Histogram: 1 0 0 0 0 0 0 0 0 0

Total # of neighbors = 597806
Ave neighs/atom = 597.806
Neighbor list builds = 646
Dangerous builds = 0
========== GPU Production run ==========
Generated 0 of 0 mixed pair_coeff terms from geometric mixing rule
Neighbor list info ...
  update: every = 1 steps, delay = 0 steps, check = yes
  max neighbors/atom: 2000, page size: 100000
  master list distance cutoff = 14
  ghost atom cutoff = 14
  binsize = 4, bins = 7 7 7
  2 neighbor lists, perpetual/occasional/extra = 1 1 0
  (1) pair lj/cut/kk, perpetual
      attributes: full, newton off, kokkos_device
      pair build: full/bin/kk/device
      stencil: full/bin/3d
      bin: kk/device
  (2) compute rdf, occasional
      attributes: half, newton off
      pair build: half/bin/atomonly/newtoff
      stencil: full/bin/3d
      bin: standard
Setting up Verlet run ...
  Unit style    : real
  Current step  : 50000
  Time step     : 2
Per MPI rank memory allocation (min/avg/max) = 4.22 | 4.22 | 4.22 Mbytes
   Step          Temp          PotEng         KinEng         TotEng         Press          Volume        Density          CPU      
     50000   408.28436     -2158.2377      1215.8011     -942.43661      25081.763      19168.952      6.0398583      0            
     51000   407.7007      -2126.144       1214.0631     -912.08094      25606.587      19168.952      6.0398583      0.46856328   
     52000   433.36687     -2147.0541      1290.4925     -856.56161      25413.022      19168.952      6.0398583      0.94076933   
     53000   424.64754     -2160.2298      1264.5279     -895.70191      25253.018      19168.952      6.0398583      1.4061592    
     54000   421.58646     -2169.7433      1255.4125     -914.33082      24970.34       19168.952      6.0398583      1.8765018    
     55000   421.65075     -2109.1424      1255.6039     -853.53848      26022.194      19168.952      6.0398583      2.3448243    
     56000   434.7908      -2124.2122      1294.7328     -829.47941      25862.948      19168.952      6.0398583      2.8170146    
     57000   432.09021     -2127.5453      1286.6908     -840.85447      25801.338      19168.952      6.0398583      3.2853473    
     58000   414.06965     -2081.827       1233.0287     -848.79826      26568.741      19168.952      6.0398583      3.7547456    
     59000   436.72587     -2099.7981      1300.4951     -799.30307      26298.175      19168.952      6.0398583      4.2224306    
     60000   443.92814     -2152.5611      1321.9422     -830.61895      25414.776      19168.952      6.0398583      4.6899783    
     61000   411.88869     -2112.9637      1226.5342     -886.42947      25985.733      19168.952      6.0398583      5.1589255    
     62000   431.30677     -2131.4445      1284.3579     -847.08658      25703.856      19168.952      6.0398583      5.6268705    
     63000   436.98492     -2144.7036      1301.2665     -843.43716      25423.094      19168.952      6.0398583      6.0954658    
     64000   386.65243     -2101.8294      1151.3849     -950.44452      26071.788      19168.952      6.0398583      6.5638142    
     65000   428.11982     -2140.2677      1274.8677     -865.39994      25582.751      19168.952      6.0398583      7.0339629    
     66000   423.31224     -2128.2463      1260.5516     -867.69473      25815.081      19168.952      6.0398583      7.5054504    
     67000   416.63083     -2143.203       1240.6555     -902.54755      25403.678      19168.952      6.0398583      7.9754159    
     68000   425.32445     -2138.1117      1266.5436     -871.56812      25559.63       19168.952      6.0398583      8.4472734    
     69000   420.65128     -2183.9519      1252.6277     -931.3242       24590.255      19168.952      6.0398583      8.9163286    
     70000   439.99183     -2127.6072      1310.2205     -817.38662      25834.378      19168.952      6.0398583      9.3858413    
     71000   426.63553     -2127.9429      1270.4478     -857.49509      25774.48       19168.952      6.0398583      9.8562774    
     72000   426.82011     -2088.1294      1270.9974     -817.13197      26444.141      19168.952      6.0398583      10.324378    
     73000   424.38322     -2125.9785      1263.7408     -862.23773      25720.418      19168.952      6.0398583      10.792691    
     74000   419.04506     -2120.8825      1247.8446     -873.03782      25712.66       19168.952      6.0398583      11.263801    
     75000   432.67285     -2165.3175      1288.4259     -876.89166      25130.614      19168.952      6.0398583      11.730454    
     76000   423.67206     -2148.4326      1261.6231     -886.80955      25338.046      19168.952      6.0398583      12.200743    
     77000   430.90779     -2095.2597      1283.1698     -812.08985      26384.446      19168.952      6.0398583      12.66934     
     78000   418.43039     -2138.7683      1246.0143     -892.75408      25535.811      19168.952      6.0398583      13.138328    
     79000   415.74745     -2020.2866      1238.0249     -782.26166      27636.612      19168.952      6.0398583      13.609971    
     80000   413.41904     -2106.0895      1231.0913     -874.99815      26084.636      19168.952      6.0398583      14.079099    
     81000   424.36922     -2143.1448      1263.6991     -879.44577      25547.12       19168.952      6.0398583      14.548705    
     82000   427.86831     -2092.036       1274.1188     -817.91719      26420.022      19168.952      6.0398583      15.019922    
     83000   433.49863     -2135.6666      1290.8849     -844.78169      25629.016      19168.952      6.0398583      15.487702    
     84000   418.31935     -2098.7154      1245.6836     -853.03181      26217.727      19168.952      6.0398583      15.955664    
     85000   414.94604     -2144.2562      1235.6384     -908.61776      25423.588      19168.952      6.0398583      16.425704    
     86000   429.67079     -2158.0424      1279.4862     -878.55613      25282.612      19168.952      6.0398583      16.89547     
     87000   435.96215     -2059.9206      1298.2208     -761.69978      27054.232      19168.952      6.0398583      17.365039    
     88000   412.23971     -2110.7651      1227.5795     -883.18564      25991.534      19168.952      6.0398583      17.836106    
     89000   441.26063     -2108.2428      1313.9988     -794.24401      26235.039      19168.952      6.0398583      18.303902    
     90000   449.76817     -2084.1227      1339.3328     -744.78993      26776.413      19168.952      6.0398583      18.773       
     91000   423.62501     -2083.5146      1261.4829     -822.03167      26563.105      19168.952      6.0398583      19.243762    
     92000   425.79048     -2160.8731      1267.9313     -892.94178      25120.984      19168.952      6.0398583      19.71216     
     93000   413.11663     -2147.0588      1230.1908     -916.86804      25306.082      19168.952      6.0398583      20.182781    
     94000   436.02615     -2107.3285      1298.4114     -808.91706      26214.68       19168.952      6.0398583      20.656072    
     95000   407.0357      -2098.7495      1212.0828     -886.66666      26007.334      19168.952      6.0398583      21.125753    
     96000   405.11058     -2117.1059      1206.3501     -910.75576      25799.717      19168.952      6.0398583      21.59468     
     97000   407.36249     -2138.1023      1213.0559     -925.04634      25429.945      19168.952      6.0398583      22.064772    
     98000   420.78191     -2079.4929      1253.0167     -826.47628      26593.138      19168.952      6.0398583      22.53156     
     99000   427.94987     -2149.5337      1274.3616     -875.17201      25385.312      19168.952      6.0398583      23.001307    
    100000   419.5752      -2113.8061      1249.4233     -864.38282      26029.145      19168.952      6.0398583      23.47168     
    101000   412.52851     -2172.2919      1228.4395     -943.85246      24799.437      19168.952      6.0398583      23.941013    
    102000   427.17366     -2119.8836      1272.0502     -847.83337      26043.748      19168.952      6.0398583      24.41099     
    103000   414.16051     -2106.7058      1233.2993     -873.40648      26120.169      19168.952      6.0398583      24.881608    
    104000   412.11079     -2097.8841      1227.1956     -870.68857      26208.678      19168.952      6.0398583      25.349899    
    105000   404.42147     -2187.1502      1204.2981     -982.85213      24594.109      19168.952      6.0398583      25.816635    
    106000   417.99244     -2156.8768      1244.7101     -912.16674      25096.72       19168.952      6.0398583      26.285495    
    107000   428.01086     -2126.9281      1274.5432     -852.38486      25766.688      19168.952      6.0398583      26.757701    
    108000   424.11471     -2087.0346      1262.9412     -824.09346      26527.848      19168.952      6.0398583      27.227047    
    109000   417.71016     -2114.2877      1243.8695     -870.41816      25841.986      19168.952      6.0398583      27.695573    
    110000   421.19389     -2126.1568      1254.2435     -871.91336      25647.558      19168.952      6.0398583      28.163381    
    111000   393.4065      -2135.5494      1171.4974     -964.05204      25398.039      19168.952      6.0398583      28.635128    
    112000   411.53937     -2135.9831      1225.494      -910.4891       25576.846      19168.952      6.0398583      29.102651    
    113000   409.58719     -2143.1577      1219.6807     -923.477        25424.37       19168.952      6.0398583      29.572401    
    114000   420.29949     -2148.3658      1251.5801     -896.78572      25355.216      19168.952      6.0398583      30.041632    
    115000   406.46668     -2129.6873      1210.3884     -919.29896      25603.848      19168.952      6.0398583      30.513425    
    116000   430.92506     -2145.2018      1283.2213     -861.98052      25427.248      19168.952      6.0398583      30.981669    
    117000   405.64543     -2083.275       1207.9428     -875.33215      26434.299      19168.952      6.0398583      31.450571    
    118000   421.91293     -2110.8225      1256.3847     -854.43779      26029.952      19168.952      6.0398583      31.919754    
    119000   405.54399     -2149.8295      1207.6407     -942.18875      25181.077      19168.952      6.0398583      32.38941     
    120000   413.98226     -2121.0493      1232.7685     -888.28083      25704.212      19168.952      6.0398583      32.855598    
    121000   415.84975     -2136.3651      1238.3295     -898.03557      25579.682      19168.952      6.0398583      33.326422    
    122000   426.00122     -2103.3297      1268.5589     -834.77082      26197.352      19168.952      6.0398583      33.792242    
    123000   417.17195     -2082.4767      1242.2668     -840.20991      26432.754      19168.952      6.0398583      34.261331    
    124000   428.69568     -2152.5589      1276.5825     -875.97638      25384.086      19168.952      6.0398583      34.732332    
    125000   438.62321     -2166.0921      1306.145      -859.94705      25161.935      19168.952      6.0398583      35.201149    
    126000   431.92289     -2129.2734      1286.1926     -843.0808       25760.344      19168.952      6.0398583      35.669484    
    127000   417.81192     -2123.0114      1244.1725     -878.83889      25789.135      19168.952      6.0398583      36.135143    
    128000   421.05486     -2124.1237      1253.8295     -870.29421      25807.062      19168.952      6.0398583      36.605877    
    129000   436.99857     -2115.5876      1301.3071     -814.28045      26011.882      19168.952      6.0398583      37.07378     
    130000   423.25955     -2129.4674      1260.3947     -869.07274      25663.638      19168.952      6.0398583      37.545857    
    131000   415.40978     -2143.3077      1237.0194     -906.28836      25405.4        19168.952      6.0398583      38.013769    
    132000   423.31348     -2133.4255      1260.5553     -872.87019      25622.972      19168.952      6.0398583      38.486167    
    133000   411.07213     -2093.8428      1224.1026     -869.74014      26267.258      19168.952      6.0398583      38.952324    
    134000   423.06698     -2097.1503      1259.8212     -837.32908      26205.698      19168.952      6.0398583      39.421197    
    135000   412.69105     -2111.8976      1228.9235     -882.97409      25961.109      19168.952      6.0398583      39.890339    
    136000   413.05291     -2145.2754      1230.001      -915.27439      25322.675      19168.952      6.0398583      40.359826    
    137000   420.9417      -2144.4968      1253.4925     -891.00427      25383.558      19168.952      6.0398583      40.831495    
    138000   427.41461     -2119.8789      1272.7677     -847.11114      25936.12       19168.952      6.0398583      41.299171    
    139000   415.72515     -2069.9909      1237.9585     -832.0324       26788.877      19168.952      6.0398583      41.767198    
    140000   417.40801     -2068.8318      1242.9698     -825.86202      26715.178      19168.952      6.0398583      42.237154    
    141000   425.63412     -2084.8423      1267.4657     -817.37661      26531.117      19168.952      6.0398583      42.705627    
    142000   438.38933     -2090.0477      1305.4486     -784.59918      26620.907      19168.952      6.0398583      43.176549    
    143000   422.82367     -2125.7484      1259.0967     -866.65169      25867.155      19168.952      6.0398583      43.644687    
    144000   435.68738     -2113.6552      1297.4026     -816.25256      26011.319      19168.952      6.0398583      44.117275    
    145000   401.49636     -2132.252       1195.5876     -936.66443      25578.343      19168.952      6.0398583      44.587393    
    146000   419.79535     -2044.5333      1250.0789     -794.45446      27218.278      19168.952      6.0398583      45.056871    
    147000   442.17237     -2170.0728      1316.7138     -853.359        25150.065      19168.952      6.0398583      45.52818     
    148000   431.00575     -2158.1935      1283.4615     -874.73201      25281.285      19168.952      6.0398583      45.999603    
    149000   425.20784     -2131.0572      1266.1964     -864.86084      25659.779      19168.952      6.0398583      46.468155    
    150000   424.72808     -2142.656       1264.7677     -877.88835      25523.127      19168.952      6.0398583      46.938772    
Loop time of 46.9398 on 1 procs for 100000 steps with 1000 atoms

Performance: 368.131 ns/day, 0.065 hours/ns, 2130.390 timesteps/s, 2.130 Matom-step/s
99.8% CPU use with 1 MPI tasks x 1 OpenMP threads

MPI task timing breakdown:
Section |  min time  |  avg time  |  max time  |%varavg| %total
---------------------------------------------------------------
Pair    | 1.4562     | 1.4562     | 1.4562     |   0.0 |  3.10
Neigh   | 2.7345     | 2.7345     | 2.7345     |   0.0 |  5.83
Comm    | 0.89018    | 0.89018    | 0.89018    |   0.0 |  1.90
Output  | 0.13243    | 0.13243    | 0.13243    |   0.0 |  0.28
Modify  | 39.072     | 39.072     | 39.072     |   0.0 | 83.24
Other   |            | 2.654      |            |       |  5.65

Nlocal:           1000 ave        1000 max        1000 min
Histogram: 1 0 0 0 0 0 0 0 0 0
Nghost:           7550 ave        7550 max        7550 min
Histogram: 1 0 0 0 0 0 0 0 0 0
Neighs:         446274 ave      446274 max      446274 min
Histogram: 1 0 0 0 0 0 0 0 0 0
FullNghs:       597934 ave      597934 max      597934 min
Histogram: 1 0 0 0 0 0 0 0 0 0

Total # of neighbors = 597934
Ave neighs/atom = 597.934
Neighbor list builds = 1615
Dangerous builds = 0
========== GPU Simulation completed ==========
=========================================
FINAL RESULTS:
  Density:     6.0398582910241 g/cm^3
  Temperature: 424.728081645559 K
  Pressure:    25523.1270952212 bar
=========================================
System init for write_data ...
Generated 0 of 0 mixed pair_coeff terms from geometric mixing rule
System init for write_restart ...
Generated 0 of 0 mixed pair_coeff terms from geometric mixing rule
RDF written to rdf.dat
Final structure written to outputs/final_structure_ga_lj.data
Trajectory written to dump.ga.lj.lammpstrj
Total wall time: 0:01:09
