LAMMPS data file via write_data, version 22 Jul 2025, timestep = 100000, units = real

1000 atoms
1 atom types

0 26.7628766153 xlo xhi
0 26.7628766153 ylo yhi
0 26.7628766153 zlo zhi

Masses

1 69.723

Pair Coeffs # lj/cut/kk

1 0.43 2.7

Atoms # atomic/kk

496 1 8.552968531916415 2.9115324634296798 7.350196831148427 0 0 1
577 1 3.080132432060784 6.115199493911988 7.872086624187741 1 1 0
163 1 2.0948992618448683 7.82691488716719 2.4002557760543692 0 0 1
697 1 6.374579337542361 2.4289825593684484 5.5554321491345275 1 0 0
637 1 4.288908076326641 7.402478043710034 5.952941652474714 0 0 0
968 1 0.18444608361794132 2.5371493712083564 2.577904508387586 0 0 0
597 1 2.5648224576896315 5.283185892775725 25.74375640932845 0 1 -1
850 1 6.064661131993516 4.3352041883023045 7.808099796203005 0 0 0
172 1 3.8414526655476933 0.9717970295470642 0.9666176486134422 0 0 0
101 1 3.963344095987927 5.283644478559224 2.0457610698323245 0 0 0
259 1 2.0708777865854766 4.292273142991034 4.14780745416869 0 0 0
520 1 7.050781028764517 5.167020865687175 2.3418551942363903 0 1 1
872 1 6.160575200158943 6.968688158109197 4.070410676863614 1 0 0
594 1 0.16161868191555495 5.442976849882735 2.2060794632768577 1 0 1
397 1 4.619023189715059 4.975440600393459 4.8256816953679165 0 1 0
608 1 5.26294491741479 5.323938334807682 26.193339866313735 0 0 0
234 1 4.0984869538598865 2.3672462356051684 3.112282494635479 0 0 -1
364 1 0.8052941336737067 6.922409835999351 26.58023742700411 0 1 0
43 1 1.7487498077699166 6.689165203698853 5.4571354713196625 2 0 0
491 1 5.6843815782046105 3.167664690520949 1.13664131264558 0 0 1
624 1 6.190568136661371 0.32929892245474107 4.027156800367906 0 1 0
229 1 3.8178369590275127 3.302014185929806 6.766420286817732 1 1 0
236 1 1.699574337482701 1.8355113689706373 4.715128154720753 1 1 1
516 1 0.9576497623580212 7.163022189140857 8.889280798668812 1 1 0
134 1 7.728235555250042 6.994801003337356 0.35190331949698594 1 0 0
550 1 8.958531527735678 1.3911966822720017 5.25668736566317 1 1 1
57 1 1.2068681311455605 4.335166938436836 6.659645456040531 0 1 0
688 1 26.60099144156893 7.8830637548132305 4.032117531741668 0 1 0
419 1 7.316689402988864 1.3259160888584518 1.90962874512796 -1 1 0
87 1 25.784338124508068 1.5549375912029697 8.31897655659729 0 0 0
222 1 5.441447420264113 7.732925257739328 1.4523148209820649 0 0 0
625 1 1.6590497150899066 1.5776181841824481 7.643035804033746 1 1 1
4 1 2.3015670903073966 3.1606933878204964 0.4037486066396824 1 0 1
904 1 7.430444099883759 4.779508173244886 5.691358520267718 0 1 0
583 1 6.076786883838604 2.116296142646519 9.358707761916316 -1 0 1
728 1 12.870660855781857 5.746779902334945 9.476378984407024 0 0 0
301 1 8.403496568938028 4.015483748600709 0.17178369409356542 0 0 0
481 1 10.702297850321346 4.0209137691939265 5.579792838024102 1 0 1
618 1 17.301823242191062 4.231397549173362 5.3991958232947015 0 1 0
681 1 11.156115076946353 7.806783630331094 8.868890208963109 0 0 0
571 1 13.867915480054053 2.8057846978291647 0.6264675925677389 -1 0 0
81 1 13.338107734984964 3.6812024272189663 8.055937441137676 1 1 0
935 1 12.858522284174828 1.2805786526063478 5.94296384786642 0 1 0
885 1 15.941865994356373 6.524322926749488 8.669221488201726 0 0 0
610 1 15.357606630160582 26.042560537783938 4.684437256265525 1 0 0
349 1 13.394777045017525 5.351733407517823 1.1118662908773724 0 0 0
292 1 16.738543827437905 6.97778421420311 6.042270047700443 0 0 0
746 1 11.281020972764455 3.723185304042616 1.8258000310980664 0 1 0
981 1 14.643664906685254 7.37928170767806 2.4228165318223818 0 0 1
779 1 8.822001439867577 3.104387644475618 3.1944578808856163 0 0 0
736 1 8.887497767952548 6.74780934415389 3.3075777853818105 1 0 1
396 1 14.028524196069394 25.20517016052975 6.718173941361942 1 0 0
551 1 15.334291230955381 2.542459554262811 3.068626824447432 -1 0 0
753 1 11.554684076368465 26.102508205949455 7.928416331030515 0 -1 0
584 1 14.130351457585261 0.049123558751819715 1.1726764192540788 0 0 0
694 1 15.604665059111374 5.309024959244124 3.3697221760362965 0 0 0
922 1 12.108405366339431 8.597233767803454 1.8223428276385787 0 0 1
38 1 10.151299171192596 6.398039162334257 1.025112543624902 -1 1 1
432 1 12.793575086491009 3.98259200963817 3.9716510619756398 0 0 0
793 1 11.131719853218815 1.9365019347440946 7.827703352983005 0 1 0
949 1 17.736447956441012 0.4670526291466258 4.286346836801171 0 1 0
771 1 14.956150253457013 2.648792386989122 5.698556266977758 0 1 0
808 1 18.251457266509455 2.2043404215592384 6.310519373358921 -1 1 0
735 1 12.09581574324645 6.374471479251938 6.43372298188943 0 0 0
486 1 9.147891075607758 26.582789579849614 2.855079581106262 1 0 1
242 1 11.841546465159697 6.645147805175124 3.380680623469169 0 0 1
893 1 11.299969927594695 1.8911800664919436 3.9376170550614367 0 -1 -1
168 1 9.351771478830628 6.4995203840752325 6.087935025161799 0 0 0
849 1 11.771456674658623 4.386583865203042 25.74868565054438 -1 1 -1
674 1 13.678550546451843 8.371155676117045 7.668652939236463 0 1 0
53 1 14.254387329668845 7.482789794506096 5.116908568773893 0 1 0
812 1 14.522611232121838 5.044630633840386 6.014274084625771 0 1 0
177 1 15.966871762691156 3.8779093366960704 8.3220277785099 -1 0 1
751 1 24.437799614719555 8.037958540811399 26.15588451218427 -1 0 0
800 1 22.06794392383632 6.942313039379153 8.497084207832957 -1 1 1
936 1 17.31796923171932 7.239951469600148 3.6918476460980436 0 1 -1
437 1 16.63058050779691 25.89900668055768 2.272747620747442 -1 0 0
866 1 21.415067715599573 25.4613805792398 3.0689262809229563 0 -1 1
149 1 24.183295882497834 0.7861053440830322 4.289633018322489 0 1 1
834 1 23.60575149409244 9.662347897234772 8.951868945088025 -1 1 0
108 1 24.26953950728417 3.26751947339616 2.026813200874183 0 1 0
150 1 18.987467912029206 5.080353451017837 7.420813782137299 0 0 0
379 1 19.445776487942172 6.4904854634183415 2.2877657821329223 0 -1 1
424 1 19.476129167712845 9.361755626377937 1.2747517896334415 0 0 1
532 1 23.24180176955663 1.4294667288039216 6.92416427960656 -1 1 0
525 1 25.40893396172941 5.152513104219324 4.368224820772956 0 0 0
857 1 23.261781839194665 6.386312948475295 6.050614487617186 0 1 0
984 1 21.64511708001343 4.3662712910312935 7.203036610762131 0 1 1
962 1 22.101000571143977 5.869582852576892 3.692416269526788 -1 0 1
121 1 21.040979083673836 1.5647379991835166 4.736693499567365 0 1 0
652 1 26.053029373096074 2.6193194268720905 5.675537601777588 0 1 0
528 1 23.244582406222914 3.570134982680304 4.933114013100999 0 0 0
190 1 19.872396843030366 4.500562573735457 4.8362373126801375 0 1 0
279 1 20.219943275500704 7.047159802055073 5.083332789866672 0 1 0
98 1 22.43072416871671 1.1905667787475511 2.24404545578845 -1 1 1
79 1 18.826540578572427 7.691366760294797 7.871992552784629 0 0 0
181 1 18.20275641089047 3.6959197062025626 2.3580536457736083 0 0 0
114 1 24.56914218876707 5.6536290384035475 0.7246545495777234 -1 0 0
742 1 20.766911078267757 1.8351168615991438 7.47414214631346 0 0 0
790 1 0.0033160517821040313 8.736573049302514 6.781734565501163 0 0 0
225 1 25.802068727651207 6.159683904931509 6.904524329941443 -1 0 0
566 1 24.349321139296208 7.374557951122834 3.004824116728577 -1 0 0
534 1 20.823140380297954 3.337102754481183 2.327295699922096 0 0 0
774 1 24.94327766588931 7.2621859056449445 9.216309003613931 -1 1 0
405 1 26.19975311375718 2.6994356385204807 26.666853240271724 -1 1 0
203 1 25.12182274686589 4.105669405547584 8.311240059921397 0 0 0
96 1 19.448020240447903 0.5897899721247858 2.473510202585547 0 0 1
303 1 4.436921582462621 9.652351096308847 4.234524523212553 1 0 1
839 1 2.263222250156112 9.53459036877704 5.54756692850716 1 1 0
271 1 7.992091006752605 8.59602801695319 6.05728035743695 1 0 0
874 1 8.430343715800147 9.148846480942849 1.647910969759794 0 0 1
392 1 6.193769808306399 16.556448113055584 8.980674473471565 0 0 0
383 1 6.238367456886833 17.934324119662623 3.7371280308976877 1 1 1
293 1 1.7618890655503943 15.82072872233698 5.854883550800519 0 0 0
786 1 9.724183213171948 15.316119767568175 5.11621972454742 0 0 0
958 1 1.6448101864044116 13.962372781509998 3.8924183563305483 0 0 0
186 1 3.778200247783405 11.961719497527158 3.4274186803370856 0 -1 0
285 1 8.065678461684293 12.97465165677616 3.7412616726101744 0 1 1
475 1 6.13924017447312 13.373745545491834 7.779361151386519 -1 0 0
275 1 3.497726981075046 17.429877021336992 9.25203831396446 0 0 0
986 1 7.295710071860245 9.994867032009452 3.922061450970826 0 0 0
306 1 25.919403425005545 13.870965115205118 9.089014353689741 -1 -1 1
715 1 5.152425604219933 16.568472350163496 0.8406077977749398 1 0 0
768 1 3.9082474004448464 17.12871368833934 6.482692596666097 0 0 0
167 1 0.9386876910042576 19.05938790624634 1.9278387949243976 2 0 0
518 1 2.5767953565349226 15.548657689211314 1.9370829411187103 0 1 1
966 1 8.701709263307144 17.568306624587137 6.823172913722522 0 0 0
421 1 5.698635538734239 12.894662685708965 5.004088772393512 1 1 0
854 1 7.15559636985279 15.578774143342276 5.0285365009241705 1 0 1
799 1 3.188950905257834 12.392059051438466 5.972938098994483 1 0 0
466 1 6.924664184830124 15.037929944463215 2.525022293420787 1 0 0
617 1 0.9244281478736162 13.38404100145291 6.746988374416169 1 1 0
716 1 25.842882120242372 11.106150989211903 7.794517068405478 0 0 0
934 1 2.3294629161892777 12.985453189851263 1.296835504804878 0 0 1
171 1 6.869780561418376 11.389622376785125 1.5398013636129395 1 0 1
807 1 3.960806787761472 11.999042203788141 8.949668734538777 0 1 0
661 1 0.18179202212376597 16.473440104941048 3.464157246296947 0 0 0
513 1 3.921577683014003 14.697281979515735 6.984762076016822 -1 0 0
159 1 1.2831857640454156 18.110296268892125 7.741198245560085 1 0 0
938 1 5.209796121038135 9.759077945450498 6.927185553961729 0 0 0
988 1 4.3215704751566415 14.700078839408306 3.742628598921867 0 0 1
76 1 7.611886963033949 10.71420163078013 7.8067274369726345 0 1 0
587 1 10.356577035595615 17.438520382358245 8.871674253052216 0 0 0
668 1 12.755913994526141 14.391238346003933 4.435363547722257 0 0 0
961 1 8.930947082372876 12.952714605183681 9.113833073112218 0 0 0
629 1 12.033446313507245 15.955708988996774 6.788992282513604 -1 0 0
365 1 17.819820704624274 16.387719873280172 7.454699392789314 -1 -1 0
798 1 11.099290241031897 16.680706062694895 3.0013698132247155 0 -1 0
901 1 12.613690928581427 14.049802993562997 25.065149264539027 0 0 -1
174 1 14.268741608226126 16.144657500326637 26.472736080576897 0 1 -1
135 1 14.76065367200146 16.171169215836873 7.648539329011731 0 0 0
62 1 9.95601968143904 14.617881095361582 2.114339986770076 1 0 1
614 1 12.809761216429086 9.737176201069035 4.7201689752676925 0 0 0
307 1 13.686072385469442 16.922084511100937 5.186462518527374 0 -1 1
791 1 16.288497587280443 11.850709972208438 7.017593219575968 0 0 0
592 1 10.90551182360502 12.873407951862665 0.019294695467569244 1 0 1
143 1 16.438472067701298 14.310620861329397 0.39183453552104935 -1 1 1
60 1 16.945134418295044 8.743850860339643 26.519641284264658 0 1 -1
88 1 10.193387344527308 10.46795329732073 9.30841383080962 1 0 0
711 1 15.52459685568229 9.245987063919179 10.323772865132293 0 0 0
384 1 15.775083335236578 9.884416382297731 5.035742827901194 0 1 0
998 1 18.017099349147795 16.433793432909873 26.237712563054924 0 0 -1
631 1 8.966048332775042 15.189801715204108 7.840198435284507 0 0 1
35 1 14.799110839571805 14.502341720021287 2.7262852517181537 0 0 1
71 1 12.551559392365863 10.99797795113881 2.0463032405346206 0 0 1
473 1 14.370518762348635 12.107860354971846 4.198064206883716 0 0 0
822 1 13.25698878081412 13.552926292129296 0.8725160229341471 1 0 0
755 1 17.459598751752836 14.264568705823454 3.0748998820317435 0 -1 1
941 1 10.72763893282019 11.663772250766232 4.839179698534842 1 0 0
458 1 16.153294117720634 16.95661124892988 2.126606578623617 -1 1 0
565 1 14.845821959767637 13.828620724105628 6.232373675359631 0 0 0
42 1 16.634680767349533 9.620426436603761 2.3312070678100913 -1 0 0
276 1 16.39540942781553 16.068603159997675 5.00131454147757 0 0 0
744 1 10.295644020746591 9.076607958825113 4.080641395746254 0 1 0
51 1 10.739498228974927 9.287482136211922 6.78169992225343 1 0 0
500 1 13.894704689241138 13.523199503138171 8.745544888908327 0 0 0
561 1 11.141143867158094 13.541553529078834 6.891784936073337 0 0 0
462 1 13.37192789446909 11.437014507036345 7.024570158389795 0 1 0
359 1 15.550738391971647 11.80763346668945 1.7938346752317766 0 0 0
215 1 16.049712736204466 9.35970326518416 7.528089734104134 0 0 0
153 1 8.531965512705716 12.895335294353858 6.260003894244761 0 0 0
231 1 9.784397872666158 11.309428333051248 2.191902063653598 0 1 0
5 1 14.477836548867883 9.694993192978345 0.6446533109662776 0 0 0
814 1 25.008196607368735 11.427056898651525 10.265450999284365 -1 1 0
572 1 19.220939381081212 16.2135840306199 4.910295802767976 0 -1 1
64 1 18.395260073928053 13.901182208617367 5.959223371464492 0 0 1
916 1 17.49735289857182 11.717626741034023 4.5405945947474375 -1 0 0
199 1 25.268404961471912 13.524337742737735 5.601589101553138 0 0 0
906 1 18.297996500794344 13.469189305255401 8.746630108513271 -1 0 1
107 1 20.533580729636586 16.12143099255395 7.521905273009845 -1 0 1
956 1 21.744361004275653 16.875075319341065 5.162006038460382 -1 0 1
66 1 18.908246305753952 9.383553247520842 4.504492512346587 -1 0 0
685 1 20.43939805920393 9.17807394341538 9.371987306400575 -1 1 1
401 1 22.641044661008355 19.49643583588815 4.865391213754036 0 -1 0
355 1 18.785793743584446 16.511320432212077 2.092540142644022 0 0 1
871 1 21.7296486637476 17.493637636566344 2.6317340007730285 1 0 0
553 1 23.162071006011992 10.388113211259457 1.3971665122242176 -1 0 0
945 1 26.006441275756494 12.86226295614659 2.9800539432873676 -1 0 1
687 1 20.008820071978167 13.703546539833928 3.2026642887040464 0 0 0
390 1 18.2237779179349 12.00980489497042 1.8653240749692328 -1 0 0
873 1 21.441189781801096 14.213785598116552 5.834278234967299 -1 0 0
842 1 23.59920741715657 15.21998513308007 7.66719226586212 0 0 0
796 1 20.710548906759268 12.084443776366783 8.144046263920897 0 0 0
265 1 24.079599332531537 9.228837121760993 6.439365968092499 0 0 0
912 1 25.094018557428413 10.207911508207419 3.499842214414166 0 1 1
908 1 20.8355951630072 11.395107228631625 5.465836509642918 0 1 0
784 1 0.207830689945271 11.234165233916425 5.117157896253366 0 0 1
372 1 26.021423292378795 15.984402406551107 7.963160684025295 -1 0 1
939 1 1.742921182596613 10.201684421969572 3.0483494880186877 0 1 1
764 1 24.688837195445743 16.852094923569776 5.896476259188105 -1 0 0
963 1 0.4239294309919356 14.860200816894974 0.7990663056227784 0 0 1
937 1 23.341831803145574 12.302039379564544 7.2592809584329325 0 0 0
48 1 21.94481676797731 12.101516711663685 26.445878980566903 -1 0 -1
861 1 25.027548286011566 16.45718159724621 0.9360181519943842 -1 0 0
816 1 20.903123732739388 10.899384022138573 2.785590390051905 -1 -1 0
864 1 21.39012116009478 8.873661568171029 6.589284232393779 0 1 0
978 1 18.552205661439395 10.491020264447657 7.304564184661565 -1 0 0
810 1 23.879290981959034 15.084935764312302 3.4121865640815963 0 0 1
267 1 22.36628998062998 9.028340023317027 3.7571438607516043 0 1 0
868 1 23.033288048958408 12.267090744907534 3.8276080007563897 -1 0 0
858 1 5.490321312037879 23.8901723929106 0.5024348834531954 0 0 1
280 1 1.385698113284742 0.26322489672898053 26.233740014796496 0 1 0
94 1 7.079425254773584 0.1682834851410876 7.041493030303444 0 1 0
318 1 1.5668679944360717 0.04760579764185156 2.07598249288958 0 0 1
773 1 8.382937643584162 24.859314567375602 5.205121431105072 0 0 0
408 1 1.6753537562467817 19.082436084680765 10.554685613373241 0 0 1
471 1 8.937589643422818 19.55439929011788 5.02539812109263 0 -1 0
482 1 8.82475920445711 17.482281484715653 3.147040813445912 0 0 0
326 1 6.881788756317114 20.744339688026248 3.540318148556183 0 -1 0
183 1 3.055440705814264 20.73248649119422 3.0630067185075096 0 0 0
909 1 6.729271404682622 24.272905655098253 7.974573758046682 0 -1 0
589 1 8.629490771460414 20.088961896162658 25.67848276152297 0 0 0
911 1 4.92311669244067 19.388506137721773 9.926463357881586 0 0 0
59 1 3.799895435821887 17.30915828510697 3.483154477511395 1 0 1
659 1 3.79236784523069 19.962700574895955 7.325321767333657 0 0 1
273 1 7.656029029917061 22.321732954277554 1.2215827628346556 1 -1 1
591 1 7.227341924870649 24.402506215646557 2.9640400481664964 0 0 1
123 1 6.860907498819553 25.918104109539396 0.4330898032827022 0 1 0
290 1 8.461749962600706 22.154716576234524 6.640352996454012 0 0 1
389 1 3.7958206110245336 26.23188670865886 5.246834224276033 0 0 1
914 1 5.305308798661235 21.42311006928588 1.4239718241044126 0 0 0
99 1 2.3038260520702507 24.347152969641094 0.9492397425658894 0 0 1
840 1 7.006044726358453 19.014757126316656 0.9330974590560205 0 0 1
848 1 5.958265759112478 21.830403647984756 6.564027712654555 1 0 0
120 1 2.303897763950769 24.14879505980685 4.177474491135766 0 0 1
552 1 3.170404899712749 21.85756103898642 9.842412245698519 0 -1 0
410 1 2.0359304074756985 21.664544858343632 5.827185082302087 0 0 0
334 1 10.01379365534581 20.02082232837445 7.742545866850021 0 0 0
243 1 9.280519867967362 25.047039779517025 7.625105631312279 0 0 0
418 1 5.917352146746936 24.757207978843237 5.463193383613514 0 -1 0
368 1 10.234254218541608 22.96811486030927 0.5477117679100817 0 0 1
331 1 6.2622063445397576 18.565197180620576 6.960851974376659 1 0 -1
542 1 4.134296377845959 25.444924343941974 2.3691134766940025 1 0 1
391 1 3.6118857162205917 23.54613054486645 6.744645919704248 1 0 0
313 1 5.028854331262601 22.67769258685422 4.142374672290473 0 0 1
116 1 4.560357013372621 19.696654425955856 5.016674642472779 0 0 0
477 1 1.6297075539295005 19.008151387839217 4.441433781837785 1 0 0
888 1 0.47377399254458574 23.927032814795492 6.178516731416839 1 0 0
952 1 11.362478724106374 18.30777486199592 5.777551463835239 1 -1 0
615 1 16.427066789680925 20.08191859173716 1.5281168541271473 0 0 1
197 1 15.721390417754723 23.59177592117865 3.955470920051892 -1 0 0
119 1 13.82615980595805 21.691344336733422 0.14728797487349163 -1 0 0
905 1 13.088720777212561 20.982197596359722 8.89175369757539 0 0 0
684 1 12.899306521003828 23.514962260640107 4.277679439122798 0 0 1
722 1 15.05466451184937 18.568303739997795 3.7518496847483904 0 -1 1
680 1 10.749797760900764 26.21567087226402 5.1312319808950715 0 0 0
264 1 17.294457441439654 22.83108044863488 6.641245216826239 1 -1 0
238 1 17.337845914612828 25.34626322363132 6.3281990289934305 0 0 0
138 1 17.92156759461351 18.462746398193488 4.397755966208495 1 0 1
257 1 13.181315606658488 18.85472969097679 0.7694491052116391 0 0 0
895 1 9.138370011530684 22.248793553751007 3.8701289896320605 -1 0 1
371 1 17.772456961170427 20.986469598571983 8.385547793762054 0 0 0
407 1 13.823379272668957 22.559263015689282 6.558699334206728 0 0 1
140 1 11.773791153338083 21.815684553608396 2.143599787480072 0 0 1
434 1 9.675441793462433 26.246586420468365 0.027961335448767163 0 -1 0
403 1 16.106450277522374 18.5387171556333 6.7470556118967036 0 0 0
699 1 16.813668662641682 21.06015466865937 4.3290532998100195 -1 0 1
347 1 11.186633294265146 20.414504233823795 26.211272153946393 0 -1 0
530 1 10.578657195016092 23.56009899033368 5.955619594571898 0 0 0
18 1 12.961531710433757 26.247523017894505 3.3980029198456894 0 0 0
720 1 10.889190679583816 24.639346031836258 2.2821269076078488 0 -1 1
599 1 16.668911718725095 23.321461251280137 1.2728704155676258 0 -1 1
999 1 9.144673311647566 20.10115043646877 2.000323211016711 0 0 0
881 1 14.278934414095511 21.070602442389532 2.655799725358048 0 -1 1
969 1 12.142303379018635 19.383785122607524 3.268436254302156 0 -1 1
752 1 12.77909655055336 18.42711129698749 8.156556882010605 0 0 0
85 1 13.510373668834813 16.773548687960385 2.373914862699032 0 -1 0
698 1 13.712276001694402 23.8127461836666 1.613079452673366 1 -1 1
61 1 13.770820295370546 19.89957376991063 6.113564134923304 0 -1 1
648 1 19.374729071734183 21.27488555636064 5.27955202074366 -1 -1 1
782 1 11.480316646092767 21.28030396971148 5.190093864695107 0 0 0
157 1 11.741023088202708 1.0475040319276332 1.217586124246096 0 2 0
621 1 21.99916089930286 25.229329457222523 7.684230857696388 0 0 0
358 1 1.2404523959620222 20.65512133964806 8.249902154926179 1 -1 -1
463 1 19.186080433178972 25.99397764647131 8.1492569557505 0 -1 0
843 1 23.087948285017852 18.645170870369345 0.3610026491982339 -1 0 0
400 1 20.963631722810916 23.274695817265307 0.7494729548448446 0 0 0
282 1 20.089498106335206 25.977195711865413 5.777677828865309 0 0 0
376 1 19.400701312816697 23.147452154843702 8.961141805370548 0 -1 0
332 1 20.207456053212354 24.89872871847696 10.75192603076327 0 0 0
792 1 0.8621533414374688 23.321303003451966 8.599168169440755 1 0 0
811 1 26.054439268547252 19.591859616778116 25.45924183090908 0 1 0
464 1 20.490533175282113 23.474307813964167 6.445542856587876 0 0 0
423 1 23.970502658027783 24.778876219299384 2.733034498502682 -1 0 1
499 1 21.203551664912965 0.47441409861593437 10.127288638427926 -1 0 0
170 1 19.95526807598103 18.82627299995168 6.664076694638529 0 0 1
19 1 25.30694154219258 26.143869264199875 6.733646934224528 0 0 0
819 1 24.019405164976416 21.18104476213688 3.373262057206159 -1 -1 0
605 1 22.91964330248615 24.803929671787976 5.254627647596352 -1 -1 0
677 1 20.759856534770226 16.89035898725036 26.469947789541184 -1 0 0
241 1 25.214115561751182 19.773202022674887 1.309209819500835 0 0 0
351 1 20.391086104608664 19.86407649685176 26.45661100836158 0 0 0
240 1 24.603904004632096 18.487721909475248 3.5976339092663263 0 -1 0
117 1 25.557371076521406 22.775042954554113 4.885700953739768 -1 0 0
789 1 18.648247271168927 21.50239281837758 2.2618350528569504 0 -1 0
865 1 21.36794160729126 21.44155479303457 7.76546499618941 -1 -1 0
924 1 0.34635825986019875 21.227428470756855 3.562818611470603 1 -1 0
374 1 25.89970253361464 0.03568429383395966 1.6738365013391636 -1 1 2
399 1 18.55909695675196 23.648127252814277 4.589979728250207 -1 0 1
759 1 23.28090370187711 22.18256839539437 5.8112074843555535 0 0 0
653 1 18.355634334030142 23.65235273712199 25.483676259220097 0 0 0
445 1 26.733425835532213 26.25906893559594 4.420141551406523 -1 0 1
931 1 0.02753308716019376 24.26278008261404 2.4122645771293567 1 0 0
856 1 20.500587624242492 19.667975566377148 3.3735027355431675 -1 -1 0
47 1 19.006160952377485 24.977228894762156 2.170611309525958 0 0 0
362 1 21.46422784624241 22.9392516935087 3.7927968732834016 0 0 0
749 1 24.40867136111878 23.729094842794996 7.585189166477027 0 0 0
950 1 18.40719279749067 18.659616315944508 0.9584834377418004 0 -1 0
514 1 21.92069150451036 21.057732978570073 1.6192733337099674 0 0 0
512 1 25.82720658479311 21.471673772811723 7.1593667769652445 0 -1 0
835 1 26.266151367875 19.325925240323127 6.038198275974198 -1 1 0
869 1 8.881791295475713 3.0375686317082202 10.208036983309222 0 1 0
627 1 6.354746873834105 6.962913495136527 7.516833006633899 0 1 0
776 1 0.8612974763468243 0.888666854409524 17.615874901802883 2 0 -1
802 1 6.5628642892890685 10.320033837516759 14.188615707837634 0 0 0
568 1 4.431355312576885 6.324267488472633 10.335785386436655 0 0 0
235 1 6.222174363946612 4.648634808621963 11.049978653288452 0 0 0
536 1 8.368506202437606 1.5105773284145332 14.868806836181047 0 0 0
721 1 8.530539568775371 0.6425376584360966 11.738129638821837 0 1 0
21 1 5.01233246729307 8.305244917024435 14.934711123617214 1 0 0
985 1 7.396358447416474 3.235337792061329 12.91521389605002 0 0 0
208 1 3.7570364682967736 4.038261559707724 11.997696933420706 0 1 0
77 1 6.84810900807631 7.982021974795347 18.478754713355393 0 0 0
777 1 5.9917118355936845 0.33999006029993256 13.637898034383996 1 0 0
860 1 2.477626602775806 8.425313484568656 11.092393912198599 1 0 0
983 1 5.967488763390966 1.5328502954792798 16.193180493971152 0 0 0
994 1 2.0070918121857826 2.4607173724007954 11.918269171732597 1 0 0
2 1 8.620250415585614 8.311799285615963 8.633415270749586 0 0 -1
655 1 2.0421941466091647 4.264079723158281 14.249638612599401 2 0 0
160 1 4.724103080965928 1.726543104111172 11.433451435390968 1 1 0
145 1 6.186512613467302 6.128845785840304 16.7184046682008 0 -1 -1
56 1 1.9733896843258865 5.629960897102844 17.990465459183408 1 -1 -1
714 1 9.562983893348031 4.469611355882126 18.580830284356242 1 1 0
8 1 2.0539481552628565 5.844506804313603 11.906438862801458 0 0 0
210 1 2.131220472563408 8.083405716365146 14.24828084348424 0 0 0
442 1 7.066626592213663 6.2640368338241545 14.098363441982086 0 1 0
616 1 5.1158635485664705 4.162160766128265 15.370256441493233 0 0 0
522 1 7.714487953043527 8.582850086887284 15.840088464045284 0 1 0
557 1 6.946032915604826 7.287668438550461 11.548780908837326 0 0 1
562 1 4.396993641468465 6.454048106629207 13.053558776240983 1 0 0
831 1 3.543188819248177 6.264978134715607 16.057703837452202 0 0 1
933 1 2.405599989968314 9.528347415573737 8.458374338637158 0 0 1
647 1 3.7507637477051237 1.9797192423434318 14.143988403277692 0 0 0
252 1 3.2267067773791416 2.962206678623313 9.502698464696229 0 0 0
454 1 9.031166624748503 0.7000291257935096 8.84459934294557 0 1 -1
226 1 0.21518110431524834 6.586641807886319 15.70325296429584 1 -1 0
41 1 7.979518215248435 5.830339997436935 9.522596232285862 0 1 0
708 1 1.0803301868073822 4.712530300988745 9.487478235535812 0 1 0
980 1 14.442868159092175 5.480650350851066 14.06783191927787 0 0 -1
220 1 13.253713685371812 3.918322968220021 16.14053857910615 0 0 0
216 1 16.354423157486707 1.892598202437744 10.478312662385864 0 0 0
713 1 11.508178171922648 8.548184746641244 13.871188743251656 -1 0 0
972 1 16.395983172274192 2.888035309601787 15.706991856981084 1 0 0
548 1 14.44371615811785 1.7027136515159051 14.66507792637827 1 0 0
870 1 11.70123942739105 1.6020849727744164 14.9028794941284 -1 0 0
640 1 11.396929893227409 4.004676051010538 10.706502958220128 1 1 1
921 1 14.007997582426706 8.10690165318206 13.88676952752269 0 0 0
357 1 13.16221328226887 25.954753795306367 14.618322784397392 0 -1 0
439 1 14.486446204709369 6.828951194591419 16.30249375167318 0 1 0
387 1 8.51872086215712 2.035049044588116 17.529568238468155 1 0 0
24 1 17.21729019350577 4.444779917559298 10.972332639704456 0 0 0
689 1 16.04614198993936 0.4279687350370606 7.673980551971248 0 1 0
80 1 14.450025812060385 4.030229748602523 11.260905842026437 -1 0 0
455 1 14.130790772450307 1.4031949226140485 9.380846501091062 0 1 0
450 1 7.660548938948693 3.927057986026551 15.835689340868267 0 0 -1
490 1 9.225221699228348 5.449987417130735 11.841764010969793 0 0 0
730 1 18.755688376814742 4.973182234383105 16.367083671565787 0 0 0
701 1 17.365054430562733 5.39407045029882 13.401421703611614 1 1 0
907 1 17.226846865063358 0.4993875848077207 14.474081524083765 0 1 0
910 1 9.081023925129024 6.317058453866864 16.56620972318317 0 0 0
828 1 13.089570358468805 8.138239336259877 11.180713741347587 0 1 -1
903 1 9.978282008648405 3.13659154521069 13.186799652738916 0 0 0
702 1 15.443983642885932 25.972327368040464 11.852905737392772 1 0 0
778 1 16.656104583237884 0.8559445895716217 17.588927659346897 0 0 0
457 1 10.503534680035617 4.878901783143127 8.371967559711168 0 0 1
989 1 15.294129939780117 6.787851587565089 11.452302266398181 0 1 0
55 1 9.651892156455174 8.053978829641009 11.133152096386507 1 0 0
884 1 9.532729353639473 6.933612720786319 14.05840578105591 0 0 0
237 1 11.388497886636618 6.223771332678958 17.883984998221933 0 1 0
381 1 11.88404693494321 6.2474511013655345 15.146369792942895 1 0 0
325 1 17.68462932863319 7.944654777879937 10.130743600720175 0 0 -1
69 1 10.943645912936859 1.2726572790911785 10.519075737274239 0 0 -1
453 1 10.316963645005687 4.092839924278983 15.899987519916634 1 1 0
665 1 11.643134170974255 6.244008181441091 12.252105187309494 0 0 0
361 1 12.536451754470503 3.7065567404280877 13.378096689178035 0 0 0
319 1 14.154013386106882 2.146491306942809 17.903127277655454 0 0 0
224 1 13.439440201262245 1.456377388735901 12.082556100071013 0 0 0
22 1 16.236812995317624 2.9172361803978895 12.96380483472728 -1 0 0
918 1 18.82134943606873 3.0550282333805225 14.358852199263996 0 0 0
156 1 18.519417541400777 1.2752940061677964 11.914605756861164 -1 0 1
195 1 18.397600790142725 1.7128368258732338 8.79335419160864 0 0 0
164 1 20.125685045179967 2.88947184223224 17.76161853594713 0 0 0
291 1 21.398502801917353 5.465204269073469 17.29221439269189 0 0 0
205 1 24.756826012998122 8.90142587050472 15.052920378853022 0 0 0
588 1 26.592910979291506 5.137148390470203 13.625118710417839 0 1 0
262 1 21.085201028681364 5.993795596679622 12.614100316903913 0 0 0
414 1 22.594725843972302 1.5097209803089082 12.138408446844172 0 1 1
269 1 24.391289319124024 6.359113929942858 15.922465757846126 0 0 1
957 1 23.175639966851378 9.721763170957239 12.41099890648723 -1 0 0
398 1 23.279194099819648 2.439677704872008 9.379112760709118 0 0 0
521 1 22.900363482989178 7.7082768286337915 10.891637561726393 0 0 0
270 1 22.091093852810005 7.824907294438298 15.02302946449638 0 0 -1
596 1 25.27343251397629 1.5161638676402476 16.36811414702138 0 0 0
426 1 24.015247189791836 26.354015923417773 9.129979398805004 -1 -1 0
386 1 19.25347948725429 1.0738472960258292 16.31456646421713 0 0 0
278 1 22.08091127393256 2.664879537366218 14.612802120353319 0 0 0
844 1 25.48459043448453 5.2040950792294645 10.741379126360972 0 0 0
90 1 20.157023981831653 6.3554816454748595 10.254989994097793 0 0 0
607 1 22.132916487916972 5.321548840292585 14.813629067398129 0 -1 -1
976 1 20.793782116891148 3.4578110464705007 12.091925774040027 0 1 0
317 1 24.57281419597078 3.868194719295715 15.547958911694405 0 1 0
692 1 22.867394636215188 2.521789451732074 17.13706415856319 -1 1 0
308 1 19.39093541546591 7.381794759013558 14.616629941051153 0 0 0
915 1 22.859882196927963 5.244453609421862 10.30939237700446 -1 0 0
667 1 23.598552472018657 4.101308415565396 12.76124731298934 0 0 0
830 1 25.64541171955032 2.694159575916132 10.97882534067426 0 1 0
955 1 23.93592314233426 6.5412761369613195 13.089307888377409 0 0 0
508 1 26.659984479335883 9.433365406053646 9.88442758787139 0 0 0
892 1 26.716287149857845 7.771597459020751 12.440288486542626 0 1 -1
336 1 0.5417834473209258 3.576418691528852 16.740593272960005 1 0 0
797 1 24.651925500293487 1.9570654546993675 13.774937001160188 0 0 0
146 1 0.5750144242063844 2.0989315525234353 14.151577218628775 1 0 0
49 1 20.30794069770249 3.526427309845191 9.443068089102162 0 0 0
375 1 4.698517019175519 10.05120548902151 16.77180114588748 1 1 0
662 1 4.928203789860328 9.558810041875129 12.012239963153716 0 0 0
846 1 2.62174215596229 11.028340172477833 11.27406524452039 1 1 0
136 1 5.365080089779598 9.025958959828111 9.410612791067829 0 0 -1
593 1 8.665338693703278 10.080781810973267 12.602497654097887 1 1 0
654 1 7.021948522853387 14.992583046384786 14.009347047658192 1 0 0
494 1 0.7058273324508868 19.19817196859912 13.394897729760393 1 0 -1
775 1 0.24240365916570863 10.755880247765493 12.792986973932967 1 0 0
772 1 5.5741387183581175 17.137526995895573 14.695802849721122 0 0 -1
201 1 3.0008650770240592 10.690951030964836 14.211276683749812 0 -1 0
388 1 0.7883044781016255 13.19918753545683 13.989969766374163 0 0 1
761 1 2.437380387163583 12.657706286430978 15.945748740269707 0 0 0
623 1 0.39978935367803986 16.400810261995165 13.383047601146838 0 0 0
272 1 2.907978552935507 14.998182141542761 14.3352616369565 0 0 0
719 1 4.834114333737926 13.151703208896471 14.61074009128898 0 0 -1
130 1 4.151405631105951 14.837060246397176 9.936609889230485 0 1 1
185 1 0.7192937886247502 16.254942328924493 16.386007629858824 1 0 0
815 1 6.980262396669919 10.708582814398108 10.795761712247279 0 0 0
6 1 0.8766151830160128 10.534829792553424 15.59932200674614 0 0 0
948 1 4.432031927016685 13.02333594129175 17.573532852468627 1 0 1
930 1 4.998292957932945 16.62427422299612 11.461456512820142 0 0 1
78 1 4.72036916809128 12.288267728995004 12.217591866947703 1 0 0
748 1 7.837278521156066 10.43862738924866 17.576247192866678 0 1 1
602 1 7.531808955373305 16.12496070346965 11.466067052490176 0 0 0
444 1 24.26730421328607 17.562368671083153 12.919404204017821 -1 0 0
227 1 25.51012208680796 16.78158488397322 18.048253365967124 0 0 0
93 1 6.724516909311262 13.654069004428612 10.830243400893297 0 0 0
212 1 6.128389664860249 15.356973455858421 16.89225867296645 0 -1 0
633 1 2.0658406780663783 14.25248458421522 11.918959910112077 0 -1 0
877 1 8.1226113489368 17.330327070345994 15.574429393421598 0 0 0
664 1 8.86214845883785 14.607856865796359 15.945730649603039 0 0 -1
612 1 4.658904887927381 19.185979352325955 16.537513306397038 0 0 0
691 1 6.818406801048426 12.396274623590523 16.131481498620133 1 0 0
484 1 0.7076009345510463 11.829525910611645 9.649271927808632 1 0 0
519 1 1.29032237204515 15.480669683205674 9.319488024853655 0 0 0
296 1 16.764792607119418 11.7738267812531 16.168139087299014 0 0 0
785 1 16.06513640115797 17.594028017000827 16.20076169030868 0 0 0
920 1 11.39676019184071 10.082293299856731 11.770164243981368 0 1 -1
675 1 16.82313604801551 7.16755572041006 15.47877674482762 1 0 1
1 1 15.094789705908367 15.60110722616842 14.122553565245703 0 0 0
841 1 9.719146968837414 15.25306974948416 13.33173835443484 1 -1 0
483 1 17.064519185587006 14.872270496385948 12.187733525945315 0 0 1
28 1 9.83077867381731 15.392353962549933 10.640005288622929 0 -1 -1
851 1 14.16580769120378 14.190904738430767 11.507766728270463 0 0 1
479 1 7.361642711029641 12.447786217803241 13.109090616901415 0 -1 0
704 1 15.588253972219793 12.721589973852192 13.504248200863662 1 0 0
310 1 9.954718748589665 9.843954373945941 15.643120767714164 0 0 0
693 1 12.226969652299868 8.623824713816745 16.605212506499353 0 0 0
91 1 9.501968078688208 12.353950851210271 17.647017109975565 1 0 1
245 1 9.606175423478334 12.255511572125474 11.78735944901486 0 0 0
44 1 12.950955793789813 16.213921414991926 9.641244491671445 0 0 0
188 1 13.24414597024433 10.7278516150546 9.87843430364461 0 0 0
37 1 15.413788923880396 18.239163035998104 9.607239565379196 -1 -1 0
230 1 17.657822328798552 17.291796869986708 14.099430531326554 0 1 0
100 1 12.681074319355215 15.90822472317383 13.448516089843668 -1 0 -1
430 1 11.306166715752655 13.576215004236932 16.205820658153247 0 -1 -1
925 1 11.964991240382085 11.085702735503851 14.65772409874284 0 0 0
187 1 14.599751674076675 10.62280366079969 12.497490531847708 0 0 0
673 1 11.286015429447414 13.410244915411328 9.936042766200089 0 0 0
531 1 15.013003624456468 16.971369688511125 11.868789816576317 0 0 0
787 1 17.036370216198144 8.726452124231981 12.655858278768093 0 -1 -1
459 1 13.415307469004313 13.652894417242385 14.72698486039287 0 0 0
341 1 9.327135097974717 12.177932648933815 14.775021178388641 0 0 0
207 1 13.046590636122032 15.932566764343132 16.174982976856292 0 0 -1
14 1 14.223475979837685 10.093269233983785 15.619765530536174 0 0 0
395 1 10.69397102346471 16.780083168478324 15.023039161859229 1 0 0
995 1 11.981781505205277 12.842232995577348 12.410815940653288 0 0 0
12 1 10.676415083799291 17.453248297466857 12.10331859767962 1 1 0
964 1 14.343318857126139 9.599479003862953 19.4905608894677 0 0 0
947 1 15.839387680966702 12.104353708635621 10.42243592101539 0 0 0
469 1 16.382661766695545 14.945559003812104 9.577286586231251 -1 0 0
897 1 17.601772836225912 9.91353336065483 14.678122030497581 0 0 0
29 1 22.689504172305796 10.498116352489287 15.285384536971508 -1 0 0
853 1 21.513774667381018 16.90156808145872 12.463787656728881 0 -1 0
987 1 20.677298795511515 19.466105745561595 13.788692483877945 -1 1 0
639 1 18.853413795257584 18.16697419805647 11.678513324702427 -1 0 1
67 1 24.630262743722426 14.866542070258289 13.155810633202949 0 0 0
209 1 25.94531821999313 9.475005641521046 17.300142519853196 -1 0 0
669 1 20.877184034489208 10.762432937655246 13.160370090642987 -1 0 -1
657 1 26.23539983213923 13.156200990993367 11.903569481100403 -1 -1 -1
570 1 22.848328807717927 12.517664361730727 13.535845402794436 -1 0 0
461 1 26.118622476527843 16.856080457776905 11.051575267017423 -1 0 1
417 1 19.01259314560132 8.539899107627635 18.38834717853593 1 0 0
805 1 23.321221900276296 16.993434953855033 9.999943218632325 0 0 0
261 1 19.539020838429053 8.403327207097067 12.094799199657972 0 0 0
431 1 22.24885466194467 15.686698321225451 14.517757729739076 0 -1 0
555 1 20.528768186417974 13.12300312881322 11.174260231058952 1 0 1
824 1 19.364494012992882 14.921535610339092 13.195146416606741 0 -1 0
253 1 20.583013270809285 17.775927915351687 9.852858785516732 0 0 0
113 1 23.813680472917977 11.066852471587238 17.692097005634654 0 0 0
887 1 26.522018100539263 12.315353425189244 17.298958279137786 -1 1 0
718 1 22.84528308191029 18.6635318665399 7.394220535271385 0 1 0
478 1 19.970851413539407 17.334987660965552 15.209152363544572 1 0 0
488 1 22.130499840321082 11.218511881988498 10.415048294812907 0 0 0
563 1 19.95194030387761 9.580970249631827 16.1357020408852 0 0 0
446 1 22.525236697402235 8.47811723298686 17.582488431703364 0 0 0
429 1 18.204561280679425 12.002587338342213 12.874640173797225 0 0 0
219 1 25.62018251800893 14.439396559473066 15.789303561719072 -1 -1 0
385 1 22.64269257930821 15.546743974605608 17.144617273598776 0 0 -1
20 1 23.5818056688863 13.903402182659788 10.85264695452805 -1 0 0
902 1 19.511478545723918 11.875393504210734 15.238530825279287 -1 0 0
867 1 19.139825616045016 15.72722506534009 10.542282695291101 -1 -1 0
509 1 23.747540984047962 13.441760867986444 18.737123264376592 -1 0 -1
619 1 20.355507525619217 14.41857914707671 16.35161196533036 0 0 0
436 1 21.172161778053045 12.092061123633313 17.39434549341073 0 1 0
766 1 17.45390612061406 14.186643231845723 14.89442433459685 -1 0 -1
314 1 25.444364872096358 11.802017828151993 14.492920614738003 -1 0 0
162 1 18.412412204772465 10.869432929376197 10.269959441278067 0 0 1
239 1 21.470322522515012 14.559558174593649 9.220599152501595 0 0 0
449 1 1.996047097714282 24.42459882666734 10.822848004208844 1 -1 0
502 1 8.690057549116487 19.44734956726716 12.701688707711032 0 0 -1
670 1 5.234531884608702 24.677427473816877 14.5169867138769 1 -1 0
287 1 2.7024705419810524 20.43314482855402 15.221051333640931 1 -1 0
505 1 3.1079804879187547 21.039494262985226 18.230083321528692 1 0 0
127 1 0.25181993239622796 21.997459607895298 15.555730805008146 1 -1 -1
604 1 4.827753570496067 22.02151947029118 12.976573673286856 0 -1 1
875 1 1.687052197674449 23.599517103605404 16.765319218968116 1 0 -1
558 1 2.4406623138336125 16.92703018881141 11.825541627117246 1 0 0
33 1 7.632843809799381 25.20650246902871 12.789696309643867 0 -1 0
103 1 3.400014386077607 19.650353710867773 12.71537448132575 1 -1 0
316 1 2.722911043752244 26.313741855001396 13.274134627401606 0 -1 0
251 1 6.353557678912213 24.046676440631863 10.923102359936125 0 1 0
613 1 2.543737732341361 0.1831165088549335 10.288652451901333 0 0 0
440 1 3.617551477317272 26.756860415398805 15.807004887536895 1 -2 -1
515 1 2.8915381186369 17.837185048343716 14.466587462436275 0 0 1
223 1 7.195979098713809 23.022649101131737 15.906389270992747 0 -1 0
821 1 0.9547740004241779 25.95999091360985 15.6789066039672 1 0 0
666 1 1.281833236391936 18.61168354550657 17.327878843610584 0 0 0
650 1 26.504699333671844 24.086770665927382 12.952424565079962 -1 0 0
993 1 1.7330143052634455 21.718256744549073 12.311029318789034 1 -1 0
706 1 6.866044868324558 19.854665795292224 15.060398621108202 0 0 0
710 1 4.1274319452793655 24.27832046944091 12.199163841506751 0 0 0
263 1 3.9694342061487253 24.787892363330748 9.332842408102307 0 -1 0
394 1 6.138428922452788 19.760382443758306 12.309680766960657 0 0 0
926 1 7.502119116261659 22.283505431428534 13.347171714514882 0 -1 -1
192 1 6.757300046172876 20.76016989872864 17.651238268085358 0 0 0
248 1 4.893164161307542 21.891945993037925 15.696468338650659 0 0 0
696 1 2.464430450291773 23.601352614985124 14.179139879700806 0 0 0
836 1 6.327680209732653 26.41983001934973 10.559597513249876 0 0 0
929 1 7.597347264110383 25.72607153866816 15.79913452786211 1 -1 0
862 1 7.593994558263337 20.382616927989336 8.572021541636222 0 0 1
221 1 2.135296958913242 25.72808504010762 7.55392840408717 0 0 0
154 1 5.708967854438784 22.11339358677354 9.44847644440857 0 0 1
845 1 4.57033486217553 0.7638208340617649 7.529590854824409 0 0 0
837 1 18.309157025215775 24.506925862835978 12.863016473435845 0 0 0
574 1 17.79509393880166 20.749502748383687 11.385678609660184 -1 0 0
104 1 17.277655725460473 23.121593245597015 10.730027500527056 0 0 0
15 1 12.602958454184648 23.569396331597602 8.571705546950783 -1 1 0
72 1 14.799300558266937 25.567720855907 9.343788175110532 0 0 0
781 1 11.93205851573046 18.742881572824857 13.680314805872959 0 -1 -1
256 1 12.250971083945284 23.398708433820573 17.046194302236533 0 0 0
132 1 14.417500024666603 19.018482121845434 14.755872136207051 0 -1 0
795 1 16.360236522555876 20.563265352936188 15.855951574662361 0 0 0
137 1 10.572499582547438 26.089713201815474 15.847908546231603 1 -1 0
161 1 12.416578546875712 18.576317464082575 16.657747308930105 0 0 0
601 1 10.647541720644549 20.191445682922392 10.442949920320773 0 0 0
204 1 9.687900869488102 23.19088742546314 14.924738291994977 1 -1 1
788 1 11.79858177518698 22.382296149117465 10.969991309097546 0 0 0
959 1 13.485011759193045 21.303008024966488 12.934496281195193 1 -1 1
422 1 12.922709591367058 18.72887157735199 10.740708802742313 0 -1 0
769 1 15.054248928850809 20.73146828953727 10.55368954796546 0 -1 -1
586 1 14.208620923301233 22.388845358290343 15.225276683735135 0 0 0
165 1 17.492585922176893 25.940691028202103 10.416971936480873 0 -1 0
582 1 10.652009497680908 26.177736007841872 12.855360550602914 0 -1 0
620 1 10.575535439678132 21.222833691737765 13.048236996089134 0 0 1
342 1 9.58510707775927 23.472740244315023 11.908654733008785 0 1 0
780 1 15.98387129932622 19.367233308104538 12.587433688731718 0 0 0
758 1 9.988156508095225 25.48580442633028 10.177011839316766 0 0 0
603 1 8.216737055958435 18.421264971176598 10.122523107500577 1 -2 0
166 1 15.553706815982116 24.61712005446492 14.191727425450317 0 -1 0
569 1 11.974665756733694 23.708284339507134 13.721020104487867 0 -1 0
726 1 17.456070048751034 25.09222089319758 18.556192515213553 0 -1 0
366 1 9.803816159844 19.92262579203766 15.427976528265619 0 -1 0
626 1 9.66199174860435 22.48323368063532 9.317656543043006 0 0 0
970 1 15.311521088434574 22.917309842083124 8.84594163934902 0 -1 0
540 1 14.068878463511235 23.504652535194307 11.242229966738948 0 0 0
974 1 12.039092606526603 21.21583987943357 15.39701832984703 0 -1 0
485 1 15.971008502981373 21.94441278035101 13.15114556412329 1 0 0
309 1 10.345162780230638 25.04491291307187 18.430632147967 0 0 0
300 1 14.56271678714068 26.371586161594976 17.078005170287923 1 -1 1
435 1 12.547366724276127 25.85731792904508 10.714168062736782 0 -1 1
549 1 7.905864713874611 21.157735292845928 10.935811544664102 0 0 0
304 1 0.3672100990069681 0.03572541010903271 12.001304568276225 1 0 -1
585 1 18.09121312854965 18.52157800092872 8.934381088916403 -1 -1 1
65 1 26.46166198150818 21.867750563190548 10.351189009864497 0 0 0
529 1 20.671826536537132 24.40583877314424 14.142964861234073 1 -1 0
973 1 18.274961511287703 22.45216079251587 14.943082981472283 0 0 -1
26 1 24.081213645802702 21.471286575810474 15.882378875451634 0 -1 -1
891 1 23.545743168293527 19.864844470102767 13.681800656770116 0 0 0
770 1 20.08600845900387 22.105275148378226 12.780429046845637 0 -1 -1
923 1 18.496186099180644 18.9228487151611 16.808861798745088 0 -1 1
175 1 21.39745805715488 22.047964040205574 15.084162561775884 0 1 1
852 1 25.113642255683445 19.667658733538307 17.47611488056053 0 -1 0
686 1 22.7493118409289 24.47084619393552 16.452095180431865 0 0 0
378 1 25.825062421685878 21.27148522958788 13.139116563898146 0 -1 0
327 1 17.64500036813624 24.70128055114355 16.014029699581204 -1 -1 0
122 1 25.21953706612547 25.802962013458544 14.586863749311618 0 0 -1
690 1 22.66683537181957 25.127192859788227 12.23369828605319 -1 0 0
448 1 22.96768693731302 21.94941091062433 11.646236354799534 0 -1 1
36 1 19.98510584519289 23.928068275161117 16.93610140127723 -1 0 0
232 1 25.434738577818905 19.31367942179778 11.40422457630019 0 -1 0
889 1 22.569069573428937 18.718959826752652 15.818474207285204 0 0 -1
899 1 22.887934804042665 26.6846253196881 14.226819793545381 0 0 0
740 1 25.91596341714691 18.50272174535369 15.39398789408452 -1 0 0
250 1 25.31260797548382 24.196642289882448 10.633026517984623 0 0 0
541 1 24.487984551190884 26.68971746146867 11.901091284649187 0 -1 0
393 1 20.03055297160581 20.295204047328653 10.132119193876857 0 0 0
578 1 26.69777751689894 25.929532314789448 9.347857714687013 -1 -1 0
951 1 18.174889073613393 20.07739054346192 14.108015854920641 0 0 -1
663 1 20.12753730307525 0.09392057750017965 13.522387528978028 0 0 0
979 1 22.353628979328015 23.702773291357342 9.857965017796642 1 -1 1
760 1 24.243590574700278 26.17902144435881 18.076860729007223 -1 -1 0
554 1 24.087697844687092 23.427960459567885 13.863900539594962 0 0 0
498 1 22.489074229849614 19.550884617921557 10.147886157125455 -1 0 0
126 1 25.32626047928096 23.96664468888481 16.611388225514567 -1 0 0
547 1 23.908387184348044 21.588266606120154 9.002770034835358 0 0 0
954 1 25.49942623640538 18.826047601600827 8.8303803490958 -1 0 -1
339 1 4.690695602004162 1.3245764244187372 18.289450870233704 0 1 -1
367 1 0.021391872138380747 4.877277226325348 22.7585052039312 1 0 0
590 1 25.25866877836344 1.9954410606481012 21.90847782288118 0 1 0
112 1 1.1468540852551574 9.293597221245696 19.382217176156423 0 0 0
825 1 7.0691055904654405 1.7583038691582937 26.073545223135827 1 0 0
283 1 1.7674761718001883 8.190442338311874 16.9629581090668 0 1 0
492 1 3.1634469092132806 2.970708317655215 16.84229304023102 1 0 0
7 1 1.2802689873887436 3.297902155490959 24.76017058024964 0 1 -1
217 1 3.3175298083010127 8.910941130167524 20.97102445105794 1 0 -1
946 1 7.387175083846796 9.156476273455816 23.990956241150982 1 1 -1
611 1 6.261727260845145 8.569896155494959 21.52204337730547 1 0 0
818 1 8.23924301900038 6.1405724012757865 24.694553101902372 1 0 0
427 1 4.306916998610179 2.434850179445837 25.582132970164302 0 1 0
806 1 7.753476549064477 2.7153934869542486 20.287994717396337 0 0 -1
886 1 3.788624674247354 0.40875252115603583 20.920902337280445 0 1 0
17 1 1.2995233687013583 2.1032607008051714 21.725219588980757 1 0 0
817 1 26.643362512249443 9.508678034504237 25.360373073458486 -1 0 -1
733 1 4.862390225461604 2.7641472750176725 20.601540910976986 0 1 0
756 1 5.573387108511915 6.8545330990404425 24.07768076794312 1 0 -1
228 1 4.360532557413764 5.601766358092367 18.9001357350748 0 0 0
433 1 3.5709883611268842 8.207706008252696 26.261445969861427 0 0 -1
191 1 26.57708581562263 0.33938524967964734 20.135024535731066 0 1 -1
801 1 26.2762031853239 5.045552038972221 25.327917918451572 -2 0 0
878 1 7.069678920142817 5.755121165784008 19.74989929966186 1 0 -1
641 1 3.271220154325144 3.5255621682006706 22.79408763197276 1 0 0
944 1 2.0648285178548504 2.6841454250574843 19.252562340234913 0 1 0
45 1 4.653122623090885 1.3969893748297142 23.21076206431614 0 0 1
320 1 2.71567438034653 6.339927771042762 23.325512332762038 0 0 0
767 1 5.932746332878904 4.177947083076132 24.031737372793387 0 1 0
953 1 4.7761330031826175 6.417515365169315 21.365699502105773 0 0 -1
340 1 6.452510708421992 3.4486876318315516 18.189980205171537 1 1 -1
84 1 1.8003024321215384 6.566343396892802 20.485020535946855 1 0 0
847 1 7.195800851309192 26.19945888077282 18.687900726151845 0 0 0
695 1 7.61773469843174 1.9625449018550103 23.218853125627895 0 1 0
917 1 8.316288851713901 4.895021565585095 22.11015971324767 0 1 -1
609 1 9.617725300067654 3.823841319965428 24.043118287697755 1 0 -1
913 1 17.00391303103463 6.90116865112147 19.190404807546095 0 0 0
328 1 17.745502032379484 6.5056308639169345 21.866181455396244 0 0 -1
832 1 11.397808642691839 8.816182137293323 22.579918620698983 0 0 0
646 1 12.146555981070772 1.3286926475632312 25.37217683298017 0 0 0
266 1 12.130282559911237 0.21416921187734203 18.106580125761642 1 1 1
717 1 8.88085637560798 8.698814015841313 21.53421177282012 0 1 -1
63 1 9.48492562613523 26.743306178725717 22.534201775942204 0 -1 0
700 1 9.931686781356127 6.370160855275757 20.36508804074777 0 0 0
294 1 16.749659659137173 0.9629334975432791 24.89013000870552 0 0 0
173 1 9.785651796778273 8.612670581468356 17.960977723423433 0 0 0
539 1 11.856260066415656 8.684176279287383 19.72091988487074 0 1 0
823 1 17.153440443311162 6.824168101251814 24.683559309230585 0 0 -1
707 1 11.453966597128726 2.5887171283260972 18.008031433083932 0 1 0
39 1 14.637196766699988 6.795982285133653 26.227421403481372 0 0 0
74 1 13.905686181234456 8.007396170651143 21.956229535841114 0 1 0
658 1 17.637149840127535 3.0624757904018525 18.434723995976814 1 1 0
967 1 15.228868957873432 5.8407108772222145 20.990456119033222 0 0 -1
373 1 15.901026291723742 5.021736221499218 17.705270242869897 -1 0 0
476 1 13.826416853719559 6.111279523453467 23.781092912024977 1 0 0
139 1 12.01560922313562 5.558031681527249 21.6093108958117 0 0 -1
404 1 12.230842359431076 3.667105221417784 23.376552850421177 1 0 0
517 1 16.82749356468981 3.71949497954057 20.751672103346927 -1 0 0
246 1 11.631592339726902 1.1897666624767733 22.525173155208087 1 0 0
762 1 15.57447429829955 0.7001237818279197 20.26758848590263 -1 0 -1
189 1 10.759878533470086 6.536283719862175 23.673956524077642 0 0 -1
144 1 13.137228969064358 4.494280387436155 18.77864900742001 -1 0 0
32 1 14.148902823676423 0.4907529308585273 22.760298370866572 0 1 -1
560 1 10.461242223649508 3.1247376606748016 20.747241104590454 0 -1 0
656 1 15.901661235835274 4.293272924751517 0.2598138029357336 0 0 0
46 1 13.142674062768524 2.405449957060661 20.42890146711501 0 0 0
10 1 14.741230181003333 3.550652916513937 22.157906212260635 0 0 -1
564 1 14.425935756644687 2.8102701337514624 24.73838504041392 0 0 -1
247 1 9.774035669927983 0.780469318719872 19.568634975130944 0 0 0
425 1 17.048107090401587 3.8325412800586394 23.70512900765111 1 0 -1
105 1 17.987421376004598 9.148043952763278 23.962642413616926 0 0 0
295 1 17.473431621921613 1.9003353780321852 0.5595360053195487 0 0 1
416 1 22.097043124201292 5.616792423040952 22.047597228850652 0 0 -1
274 1 23.318348269993646 3.0214082175428425 26.13647376791691 -1 1 -1
54 1 22.375016467089427 0.5982232831243154 24.93577289136668 0 0 0
705 1 24.587227408247816 6.760368291177447 23.71095101851845 -1 1 0
829 1 21.864449732025363 3.8348688448032235 19.755371469340314 -1 0 -1
443 1 21.847638977095244 4.906925258532617 0.3481773925440162 -1 1 0
345 1 21.903480600251843 9.532233508204856 25.845787235896033 -1 0 -1
580 1 19.82812530665381 26.688593208342738 26.336260983548474 -1 -1 0
804 1 18.949082156507252 25.846281529830026 21.06881415629564 0 -1 -1
467 1 24.81522537347141 5.22202038107649 18.200413861341474 -1 0 0
106 1 26.307369335055654 7.068488732632155 18.81272316496366 0 0 0
876 1 24.393252395362 3.846838412351811 23.88379882346937 0 0 -1
827 1 0.17805877981593785 4.394188926580972 20.075131669388497 0 0 -1
428 1 18.65252836527693 4.162201158038384 26.258508189239148 0 0 -1
254 1 0.10453549921954514 8.284120870118553 22.70653043882386 1 0 -1
52 1 19.673409492454898 4.422263352609036 22.322298226306543 0 1 -1
723 1 21.417714135776485 4.243231663302621 24.4749755376101 0 0 -1
997 1 18.484389972732966 25.87457269667472 23.791386339118393 0 0 -1
833 1 19.176801286889525 1.989682662465076 24.426286514853196 0 1 0
996 1 19.093136882957662 5.122277601099543 19.288343510777867 0 0 0
526 1 22.670066899113426 6.9584741166139175 19.87408249143859 -1 0 0
896 1 20.353962640220413 7.335461058547896 23.6225663525116 -1 0 0
960 1 19.40855575207107 0.4489375131776231 18.761982790379626 -1 1 0
382 1 22.784467771175898 8.685691782669181 22.489526562886695 0 0 0
182 1 19.58110374912595 2.2818448284077624 20.701569813786726 0 1 0
194 1 20.663759529109264 0.43047495354736376 22.732494808535474 -1 1 0
632 1 19.97041825949557 7.260074399323387 20.834617573992798 -1 1 0
465 1 24.138663031078543 4.367845521815759 20.825169679055456 -1 0 -1
579 1 22.32683076242063 6.791587926906961 25.1710886931475 -1 1 0
277 1 22.285008455733124 2.7680101440239713 22.48306979551601 0 0 -1
118 1 26.595286812935367 1.395169781632772 24.28980443152316 0 1 -1
495 1 24.736187045717827 2.344718560423714 19.1294800194663 0 0 0
11 1 19.700761409798133 6.857417985464403 26.151973979846144 0 0 -1
297 1 17.460361547555852 1.2685265405794486 22.1222941695287 0 0 0
124 1 22.457557727557912 1.2057581055381599 20.094055015738416 -1 1 0
233 1 22.087272754303747 7.681261686405711 1.1574111025216258 0 0 0
546 1 25.08877639327486 6.691981461820201 21.091971011644564 -1 0 0
213 1 17.166532559521233 6.4832832818375525 0.772506841284495 0 0 0
863 1 20.673639063761158 2.285031330555588 0.02510732867441945 -1 0 0
337 1 6.78643486679 17.971934461640895 17.659226861294957 0 0 0
738 1 26.736033767706797 16.405965280195854 20.367851429835817 0 -1 0
141 1 26.373954857663747 14.257856294939337 19.440355316631702 0 0 -1
894 1 4.665244430084135 15.601988244313633 19.39423204341198 0 0 0
732 1 2.0158238167698816 16.561579237104098 23.80789525752288 0 -1 0
329 1 3.357465463128302 16.437423209720848 16.98625879110124 1 0 0
567 1 3.848955116103244 13.395372130020682 20.45279986091787 1 0 1
451 1 5.069772166438805 14.416968652627205 24.135847352801797 1 0 0
409 1 3.1297405592215854 12.354315974315764 25.523762531587412 0 0 -1
975 1 6.769895850226713 11.2070502993282 21.992727142179103 1 0 -1
489 1 6.255461473130218 14.300111349410745 21.173966021045384 1 -1 0
30 1 7.448408071538063 13.09540699519521 23.905614189981158 0 0 -1
23 1 3.924884878710154 12.322703792075119 22.991423114591914 0 0 -1
50 1 5.952734210892923 11.881686045842194 25.68928561105654 0 0 0
965 1 4.597239952622145 16.681760191080166 22.675315895384998 1 0 0
344 1 8.920825834146104 10.93614843580637 26.203661967148523 1 0 -1
305 1 2.242164365411913 14.221127285346 18.38580005378591 0 -1 0
480 1 6.11762389855488 9.049890513318354 26.25196127315631 1 0 0
158 1 4.041776588750387 10.227930079635756 1.3901642209826297 1 0 1
353 1 2.584537604479036 11.215829898974649 18.09814392580084 0 0 0
683 1 8.38218473826012 15.123684596350596 18.724082940310552 0 0 0
468 1 0.018293869080295986 18.021591348798175 22.496224960147412 0 0 0
497 1 2.1647765755138235 9.773404363189341 23.633289434154104 0 0 -1
244 1 5.466194740936578 10.201523501329747 19.269327982822734 1 0 0
346 1 1.945878765562472 11.446028453202896 20.72408116432832 1 0 0
198 1 4.686970307936046 9.817594766189716 23.88400312611371 1 0 -1
535 1 3.5729047605037936 14.808517530199818 26.165106170575047 1 0 -1
859 1 4.016736509735986 7.977177673532197 18.52378718776105 0 0 1
544 1 0.9641204201437643 14.204531116271351 24.94007063113068 0 0 -1
255 1 6.3570296262823005 17.141651196871766 25.35769951721851 0 0 -1
712 1 5.11852373337311 13.248432637187264 1.2791963094784216 0 0 1
898 1 8.66309916009653 18.43890580325767 20.81918490262503 0 -1 0
757 1 1.0187624291164756 13.561946093487306 21.880066093832895 0 0 -1
510 1 7.446770786289176 15.972975202483372 22.899928972196935 0 0 0
40 1 6.73882312743305 16.710760703164876 20.124227536230237 0 1 0
109 1 8.582913119690152 16.51422805815219 0.1366267564461867 1 0 1
750 1 6.609727739679016 13.037231139299067 19.0006813121033 1 0 0
682 1 1.4489088233562375 17.545387836078078 26.355779225908904 0 0 0
575 1 8.353345277183044 10.836679431443262 19.920451208794802 0 -1 0
741 1 26.08661200468858 11.295470504174832 19.99365338755044 0 0 -1
441 1 2.521728706407177 16.132544769468115 20.880504823719875 0 0 0
724 1 7.738045725811775 13.991726061259737 26.720112759054683 0 0 -1
413 1 1.7093490651915721 10.219092941904206 0.1653787569543689 1 0 1
671 1 10.505681674678067 16.583230351306735 17.735233305875358 0 0 0
202 1 14.20807171093127 12.380293252447476 16.93635573263322 0 0 0
474 1 10.121093786248583 13.426789351596884 24.234964820095446 0 0 0
883 1 11.64047910264699 10.076342677285353 25.91638130248576 1 0 0
110 1 10.872091441440327 15.832981128513897 23.36784938420625 0 -1 -1
991 1 16.901712900417262 16.779702192727072 23.798243070467837 0 0 0
709 1 14.10359513601845 10.838355601874294 21.951809292491667 1 0 -1
370 1 14.11822523500894 14.895701641105362 22.36592721241895 0 -1 -1
129 1 13.148475025700016 16.557738211972136 18.72232951245231 0 0 0
111 1 9.99124450442616 16.186553754501887 20.961319517568008 0 -1 -1
826 1 15.242021265383185 15.04034634558116 19.775372550443283 1 0 0
25 1 13.929588552536432 9.409019198548329 24.35643232516839 -1 0 0
1000 1 17.894415279713332 17.151300740651006 19.467630231881373 0 0 0
415 1 12.063632468873795 11.744067797938488 23.73817759303001 0 0 0
679 1 11.864414975114816 11.127946924106917 18.075267790741787 1 0 -1
142 1 11.223505480471246 14.18143755147116 19.19857140456014 0 0 0
765 1 16.694241835613592 9.221384927766652 17.593861871010656 0 0 -1
330 1 12.039492942646218 6.987095728893662 26.12891528056221 0 0 0
125 1 15.581711691538723 13.790677719295068 24.412673367243972 0 0 -1
350 1 11.897182782968898 13.679126780070643 21.97764684164602 -1 0 -1
260 1 9.622901730246465 10.874338115218201 23.013375442079937 1 1 0
928 1 14.043673313937568 7.076703120501142 18.89121508058 0 1 0
595 1 14.226100829706796 12.026865523414903 25.62906067989755 0 1 0
102 1 16.168579129008815 13.352282061382496 21.91260684394627 0 0 0
628 1 15.491667008599185 16.96726215458256 21.548160496766094 1 0 0
600 1 16.809947812744966 11.291769656572448 23.755386887484946 -1 0 -1
286 1 9.589288207509602 8.497960100369985 25.56050155089535 0 0 0
506 1 11.724060404134498 15.912528390286274 0.32344578466900537 -1 1 1
200 1 11.454985633638355 11.242427410836033 21.063352028467726 0 0 0
321 1 9.040781198422433 13.36607346486016 21.25977758124013 -1 0 -1
635 1 15.239987680330742 18.26140308718243 18.55671700382212 0 -1 0
678 1 12.526364418228615 16.86331311330066 21.409969262403468 0 0 0
855 1 13.365944333043483 12.66115989556865 19.432235378305183 0 0 0
523 1 16.22248234911107 9.081652503541862 21.17990433050689 0 1 0
411 1 16.347283396540565 11.419309701115896 19.688053967542544 0 0 -1
727 1 18.508301408279394 14.233344848020176 24.424394016224205 0 0 -1
763 1 16.82974292710466 13.983158267940974 17.985914965175716 1 0 0
214 1 26.102210909858968 11.682377236445312 0.42004623752789305 -1 0 1
343 1 18.591719520460348 18.951689284482224 24.662940790927667 0 0 -1
543 1 20.38016542729509 16.70613329413174 18.211432018546777 -1 0 -1
838 1 21.003770658239276 17.169022499199997 21.09537781183666 0 0 0
660 1 21.825329024786306 18.71895121475307 24.714305856697017 0 0 0
302 1 20.726591315422 10.48231760431088 23.84010809338268 0 0 0
729 1 26.24342021977918 15.405922864077223 22.93842551046337 -1 0 0
882 1 26.40564958238651 9.080740567682398 1.270776586137437 0 0 0
739 1 19.809585265719942 16.550301100251765 23.78384554049071 0 0 0
281 1 19.188060145798403 12.646566713345031 22.256698325658935 -1 0 -1
249 1 0.049638317592541746 11.88361127264593 23.902973339032567 0 1 0
527 1 23.594867386227435 15.23314259377399 22.859088570702657 0 0 -1
731 1 24.17383765921681 15.688149179657135 20.314230343925814 -1 0 0
672 1 19.00098571344857 9.772250731258168 20.970207025801457 0 0 -1
70 1 23.05257429746904 13.26808031241193 15.992527723001754 -1 -1 0
151 1 18.124056798141847 16.212677361877198 16.85593421199299 0 0 0
634 1 18.512088255232868 15.216609554796396 21.41907195742055 -1 0 -1
312 1 20.90900965136473 12.05205754690711 20.27644965723099 0 -1 -1
333 1 21.75391599301305 14.82952229828721 19.71759113937879 0 -1 0
369 1 25.95633948238933 16.974039774992534 25.199707996226756 0 0 -1
803 1 19.217474878940216 11.666990387185665 25.639148032475667 0 0 0
747 1 25.15705895334914 13.163358392157315 21.78340401287597 -1 0 0
131 1 23.450915174177872 15.91956428719987 25.558714606488156 1 0 -1
472 1 24.064617793354557 10.643096116175265 25.46790028683393 0 0 0
651 1 23.465319124982578 11.44738974603642 20.461873511270884 -1 0 0
890 1 24.517219322007847 8.999688869767736 20.13147186482021 -1 0 -1
83 1 19.250975417210448 14.171284578863181 0.47423248519074146 0 0 1
315 1 21.056715361428015 14.510768598492593 22.310979374263162 0 0 -1
31 1 21.118642629558078 14.433653022565958 25.250154273530686 -1 0 0
642 1 23.930458259680176 17.772859645637432 23.663197904320935 0 0 -1
180 1 24.216486016986725 13.67139113147814 0.3011734132362045 0 -1 0
576 1 21.66553879500396 9.338652307461517 20.014506875693844 -1 0 1
990 1 22.805584438665825 12.46148535311644 23.022776787416092 -1 1 0
493 1 21.59602319413455 14.849613366526466 1.2595180197984062 0 1 1
820 1 18.65616773237956 11.352634978302797 18.34005422999194 -1 0 0
630 1 19.32955834124418 14.014987616028256 19.308225894963567 -1 0 0
289 1 24.97247322427579 10.564645286130355 22.649668029995638 -1 0 0
971 1 24.773902804423276 13.580889645754427 24.35461085976896 -1 -1 0
501 1 3.888679249218575 21.018608467671953 21.18295540754397 0 0 -1
322 1 4.4441284896196755 24.14299772006145 17.3889544928683 0 -1 0
470 1 3.947203548622654 18.42635346246596 19.094622643597035 1 0 0
900 1 6.971951596546221 0.09896468048046123 21.13786569468621 0 1 0
354 1 6.029497030120859 22.186630856398963 22.466895443376934 0 0 0
348 1 0.5480319892295051 20.922117032793597 21.964649974096204 1 -1 0
503 1 0.30978525773613874 22.50678588078735 24.763570592164 0 1 0
809 1 4.10164185487655 21.25435391869857 23.861067224937266 0 0 0
460 1 4.029060744062114 18.261171047424032 24.856891255658667 0 -1 1
649 1 2.102664726896841 25.649372725993803 18.674548932233975 1 0 0
992 1 1.7686128460584616 25.387514761905564 21.375224890949497 1 -1 -1
58 1 7.507190466821471 22.31954567339389 25.361609921823067 -1 0 -1
206 1 7.829313182882163 23.56971778673969 18.55920976873816 1 -1 0
982 1 1.8141951382738448 22.980507307484498 19.796532593146964 0 0 0
147 1 7.229480540105172 24.565415357803314 22.655419572325037 1 -1 -1
115 1 5.655724207391348 20.250422413314606 25.7360731800036 0 0 -1
538 1 4.254946138659811 25.065514525923845 22.721312799407848 1 -1 -1
363 1 2.1863539756946277 0.2449041861663425 23.666380532607942 0 0 0
880 1 1.8482060466613368 19.65310577432978 24.256051063146572 1 1 0
338 1 3.3125131011061626 21.50075983851687 26.460909717370086 1 0 0
86 1 5.4460642303933495 24.185268280170913 24.784982274876214 0 0 0
438 1 7.986140061190646 20.061090839683423 23.269750753154916 0 -1 0
420 1 5.464868424552066 19.198248556199598 23.00849387942627 0 -1 0
676 1 2.8236080762998763 22.99591479872659 22.597496535063502 0 0 0
452 1 26.618362461383565 23.608890082254074 21.627471058881778 -1 0 0
288 1 6.980169361481519 26.19687241813664 24.410898880079955 0 0 -1
193 1 4.088238223524606 26.39842457074834 25.244741024972416 0 0 0
645 1 2.5733080283904264 24.129599023185616 24.973675014222547 0 -1 0
323 1 8.964109731242845 17.623338520307204 24.18507437808013 1 0 0
636 1 3.877829628706375 19.143631014282786 1.2410497952027093 0 0 0
148 1 4.299899935062848 24.40318145089213 20.056323107746078 1 0 0
940 1 6.0782697473339145 19.56218797352622 20.41197934878564 0 -1 0
324 1 5.239437161003727 22.247304481572993 19.203123946571296 0 0 0
258 1 3.0129839362311177 18.60160799048493 21.968461294776606 0 0 0
927 1 16.012193725161314 20.864122988928624 25.61440367572038 0 -1 -2
783 1 9.372002236367118 24.125351425409484 24.908461035770976 0 0 0
606 1 15.906210152660808 18.300918143325497 26.288217561506066 0 0 0
622 1 13.960034161529737 24.315960834235312 22.04321512861908 0 0 0
356 1 13.997868371815782 19.47133225887944 21.28851566176019 0 -1 0
524 1 18.107173467628943 21.669252612248258 17.898115815042807 -1 0 0
3 1 10.620693892344423 18.26757387942196 0.6745396079489554 0 0 1
507 1 15.701978075708658 23.095550452973995 17.84299278908322 0 0 -1
813 1 8.826825214842945 25.030980629046788 20.45476966727943 0 0 -1
556 1 10.48153315890231 23.76154599504566 22.292720091892054 0 0 0
504 1 16.441254723768566 24.997427359125414 20.935235596625528 1 0 0
9 1 12.034775888080134 20.80825069676531 18.562298625856567 0 0 -1
942 1 13.792944003697855 24.82702860817431 19.264250630259685 0 -1 1
179 1 15.092959600052609 21.939095053220797 22.350305120057794 0 0 0
82 1 9.790494916908855 1.9463857759048329 26.02008014851249 0 0 0
16 1 9.468122357439459 21.66806427823564 17.464839239891504 1 0 0
545 1 14.446423017295066 25.950084484658237 25.24586402463227 0 -1 1
412 1 15.887495182806695 19.384250378669858 23.591961370374705 -1 0 -1
335 1 11.683001404279203 25.55362685815665 20.832491366604692 1 0 0
299 1 12.0104619986382 25.837873646594712 24.013653045623947 0 -1 -1
95 1 12.194211985533695 24.83296429632451 26.403486374051298 0 -1 0
133 1 9.2421036767137 19.096545152540493 18.082757487400233 1 -1 1
743 1 14.458826098445703 17.195798438775626 24.04583349678116 0 0 0
311 1 8.349368485843549 22.341295086818704 21.159389254491668 0 0 0
511 1 11.516416798793491 18.486355316911787 19.785876865741105 0 0 1
533 1 17.93922005864942 21.525313398088063 23.117203333888764 -1 -1 -1
725 1 10.859570983422985 19.050327348299 22.35937578605166 0 0 -1
559 1 15.177731381224891 23.41509805554121 25.79664814881759 0 -1 0
932 1 10.462642682803919 21.08336907153386 23.75097891583427 0 0 0
89 1 16.61797416559132 24.217381584995504 23.5374856002728 0 -1 0
178 1 12.553794174742656 23.163446579880603 24.182783441636328 1 0 -1
573 1 13.432639806054809 20.042326096836298 24.25210492843521 -1 0 0
737 1 11.651705064032635 18.161870459692015 24.902945043662505 0 -1 -1
643 1 17.157837703865052 19.77060363936769 19.48435628239834 0 0 0
406 1 11.310532845921204 23.09726450989636 19.85688120346225 0 -1 0
745 1 14.092284368696344 22.00951127696292 19.767026612448483 0 0 0
169 1 9.808888976555878 20.61151217244452 19.962374932663753 0 -1 0
97 1 17.02724976625742 22.28346442548618 20.55341190264021 0 0 -1
284 1 12.191236438668389 21.206061682713226 21.806400733734076 0 -1 0
943 1 14.317099387586323 20.630756863544875 17.43241459813126 0 0 -1
152 1 26.01016732068356 24.783348006475446 26.46662194340617 0 0 0
92 1 24.712962025083964 20.482027459662785 23.15075896977938 0 0 0
176 1 22.213564904833166 25.879103257237883 0.47492528419083374 -1 0 0
487 1 22.933481735266266 17.812055896871932 18.313858144019086 -1 0 0
211 1 21.013851300521896 21.6206692525959 17.927815200503332 0 0 0
402 1 23.58852293489063 20.737083714142035 25.497342633874386 -1 0 0
268 1 26.60515969269173 25.150588031417616 23.756089055925184 -2 0 0
754 1 24.704985880153398 23.436852641872903 23.19777547798386 -1 0 0
298 1 0.39289778740795867 21.253277613691644 18.272108830319677 1 0 0
73 1 24.9469618719943 0.26825620230335906 25.99348717465891 -1 1 0
13 1 24.132447092324224 25.19885646200006 20.656203120010222 -1 0 0
352 1 0.24170206871653746 21.89327266049715 1.0185112175624482 1 0 0
644 1 25.180706125220336 22.009331757362748 20.162915918697433 -1 0 1
598 1 22.17804462742784 24.34018404278803 22.651894937582842 0 -1 0
703 1 20.178538738053785 21.715643736172993 24.646950871446066 0 0 0
34 1 1.449691426243931 18.95901995727468 19.93880000359305 0 -1 0
75 1 22.016600373252317 22.956496507506838 20.532763977377392 -1 0 0
380 1 22.912615169426573 20.503466412829336 19.77804665982673 0 -1 0
196 1 19.66240680015551 21.10793896197034 20.976637759233316 -1 -1 -1
456 1 20.808386536712927 19.337466324546117 22.33178231687364 0 0 0
184 1 23.68549791157604 22.803929820822788 1.2032945712502154 0 -1 1
537 1 22.44381400494189 21.647767970107104 23.233111783742594 -1 -1 0
919 1 20.973494148196902 24.741337595033695 24.966130563681855 0 0 0
360 1 25.585579618615554 19.24663130091201 20.30339503359439 0 -1 0
68 1 23.372862942181193 18.053904653973486 21.00887228425477 -1 -1 0
128 1 19.581959662286366 23.611742175468834 22.72455252817856 0 -1 0
377 1 20.473469686703204 19.352430164812603 19.072249805550666 0 0 0
447 1 23.210268305852207 23.394903447562633 25.33972944302849 -1 -1 0
155 1 18.214406134094784 21.404541053813407 26.46520465386923 0 -1 0
638 1 21.692657065963612 0.014590631124193634 17.02457541680212 0 1 -1
27 1 19.416478773749795 23.569082702750762 19.76598626713706 0 -1 -1
218 1 23.518449743712324 22.760240942928124 18.119393400208132 0 0 0
794 1 17.15426197420981 25.582143604004333 26.570039353412913 0 0 0
977 1 23.60026832573824 26.57552487872847 22.810508353786112 0 -1 0
581 1 18.05724137489514 18.62942583682798 21.912534638001013 0 0 0
734 1 26.475777225063716 23.992747653041874 18.750424861591704 0 0 -1
879 1 21.406048648994812 25.36377414375895 19.30577500631768 0 -1 0

Velocities

496 -0.0023165357890986707 0.002061471296734851 -0.000981819066140773
577 0.00013119287032621856 0.0011059552689980305 0.0005628591789763385
163 -0.0016238790767839951 -0.001988801348234941 2.852602543750957e-06
697 -0.0010521287057861728 0.0008214311615624821 -0.0011054627227528114
637 0.0013245865646112553 -1.5381599997890297e-05 -0.0030627361786829234
968 0.0022228313989528362 -0.0017520903843279458 0.0004304891986730368
597 -0.0034461634007234405 -0.0010364249496715465 -0.0006705003272444489
850 0.0013941147422452348 -0.0009526791932326227 0.0003508701726114093
172 -0.004108870577942794 0.001821579204578284 -8.568047300025879e-05
101 0.0010954787673550946 0.0034444857900220566 -0.0010816737513844922
259 -0.001422379267651261 0.0010351426655390364 -0.0010502396187839409
520 -0.0008416810829278933 -0.000684129018778324 -0.006107065032663376
872 -0.0026387503025901674 0.0021459567722196173 0.001433483430572
594 0.0008154740269526152 -3.155942947569953e-05 0.0009302714399191982
397 0.002584887455227189 0.0003160260457208344 -0.0034674721666206236
608 -0.003821876655761441 0.0018435015421413366 -0.0008045407793246637
234 -0.0015226587580117008 0.0029467484195681345 0.0005196309656548983
364 -0.004461627112673542 -0.0004724598516935155 -0.0030274911244251982
43 0.0007982056878717229 0.0024097694400776783 0.00202462872264235
491 0.0014522655371157047 0.0040092102868204416 -7.497117648285293e-05
624 -0.0014362221506783424 -0.00557809891589548 0.00069955493746253
229 -0.0020511496113841394 -0.0012932294289998844 -0.004226413901933157
236 0.0020362347970162313 -0.0008847608288941066 -0.0010545778590077882
516 0.0013217570471519557 0.003984552323474217 -0.0018634679933218646
134 -0.00216471742190448 -0.0007378728651160681 -0.0021084045703781604
550 0.0038204358941130935 0.0011886173642250174 -0.0025284569434455314
57 0.0028986319494517625 0.0010976301045686945 0.00043480048107017875
688 -0.0005841967327855416 -0.0015844875001444715 0.002075280684389151
419 0.0009541570903013054 0.0036988882686693814 0.0030237394933851068
87 0.0005095965500932537 -0.0009549078806311037 0.0009189112782731694
222 -0.0012269331688901132 0.001996082474474951 0.0002567787678426737
625 -0.0013370580408259198 0.00021402542216335832 -0.003004889014080615
4 0.0010313539948511332 -0.001483599438690369 -0.00017227044800539158
904 0.004624304883473938 -0.0023842600924988 0.0007742393996922041
583 -0.0007917564280458302 -0.0010120119766377227 -0.0018286401458744912
728 0.004198453855823122 -0.0003602486050893765 0.0025934864470031132
301 0.00014311862366203913 0.004379499124445413 0.0010287757146621437
481 -0.0002867007697058169 0.0023528224325362235 0.00283782079283074
618 -0.000546967325309097 0.0018232032721031816 -0.0005508121889285155
681 -0.0011600860596396275 -0.0013472719918202925 0.0005204527292328626
571 -0.0016013943137888546 -0.0004260677280952064 0.000244571613303902
81 -0.0004142635389502906 -0.003189404910652942 -0.002143140759929464
935 -0.0008134611611363834 -0.002600981589346054 -0.0005585348029163244
885 -0.0021825014044687635 0.0020522987150556823 0.003264195786988917
610 0.0011354118652080727 -0.00025856394686030193 -0.0007606571161792206
349 0.003481777515575188 -0.004168150043846506 0.0022056730498546833
292 0.001160206506310097 -0.000595252140172387 -0.00039986933530955173
746 0.001962686201886381 0.0012973993249697808 0.0017795455742902243
981 -0.0007325754892630207 -0.00010896752862726623 0.0004787028711821395
779 0.0022206056782449178 -0.00440498713150272 -0.00022306082637363334
736 0.0015906340112711843 0.00047545467566028325 0.00018243982457900198
396 0.00015187347914071643 -0.0029154214318283895 0.0031709236697677235
551 0.0006903241443133278 0.0007000118013208186 -0.0004055132252671656
753 -0.0008566314891946192 0.00020199893864834498 0.002724627884705456
584 0.0009034153713130611 -0.0011643967890988458 0.0028602786542868226
694 -0.00021673033510800227 0.0024211250763814304 -0.003328418297943604
922 0.0016101793578950497 0.0016319733967960653 -0.0011022530753695286
38 0.0009613166326888606 0.003976985975127131 0.0007592445291919036
432 -0.0012273469307115558 -0.001905331488869708 0.0006979752983659613
793 0.000998090744816545 -0.0002990766900201881 -0.0024161928728731862
949 0.001210886068912141 -0.0010402622439334374 0.0017103552937273209
771 0.0012551886606950225 0.0008996840632218233 -0.0008895892841644413
808 0.0002945481688234083 -0.0019110139442678217 -0.0009507758409573877
735 0.002259087147355045 -0.0012612705623764205 -0.0024032454171035314
486 -0.0021966391673514164 -0.00020596133194335345 0.0005055647681160149
242 -0.0010815547598635926 -0.00020224423933260386 0.000988644350767336
893 0.003864571586283361 -0.0038466833951166512 -0.003171879350495115
168 -0.0021628852419985525 -0.0007824075657318568 0.0007217140347716211
849 0.003499385349007646 -0.0024398664840985427 -0.0028659844271417033
674 0.0015265615534454414 0.0012866123101534092 0.0012938777139179134
53 0.0005672224174801306 -0.00044574964703843504 0.003373245401574504
812 0.0002648967118220285 -0.002507915348316802 0.0007794983081551611
177 0.0032285605115007295 0.002583614087408868 3.773418708467604e-05
751 -2.1756076457699756e-05 0.0011022505403065089 0.002615656210574297
800 0.002489016759083133 -0.0014651589670024866 0.0022203884374645995
936 -0.0009018287912686283 -0.0010868447884031217 -0.003084574404157843
437 -0.0015666250899886143 0.0006818449845650091 -1.336435247818664e-05
866 0.0013309289904784485 0.003224927169432527 0.0013770544299123318
149 0.0005611792857310019 0.0019893144985827574 -0.004768022973042089
834 0.003115863243030357 0.0032991467912252435 -0.0026478524283127893
108 -0.0007501949263353983 -0.0021558512022377845 -0.0003724491049142991
150 -2.6612145952954643e-06 0.0024927805963739927 -0.0026178756978994877
379 -0.00047451570625538366 -0.0023316417084025473 0.0007500322121293529
424 -0.00028067647468200187 -0.00012981713367604564 -0.0027423574814905275
532 0.000926311248538946 -0.0008009207986028889 -0.0009393120516987197
525 -0.0005335257394184292 -0.0014865700347741827 0.0013994652502464459
857 -0.0008988528211709207 0.0018068865540439344 -0.0013528621637204218
984 -0.0017670056837194488 -0.0007925258904922787 -0.0005064908910159192
962 0.0015876342091618837 0.00015023513105858846 -0.0018439234461130102
121 -0.0017870352220319566 0.002028452572946156 -0.0007019665643517894
652 -0.003597267701266042 -0.0004246040829043811 0.0006541556086698215
528 -0.000779143870477375 -0.0037201764754368934 0.0005835461313492117
190 -0.0007449913535105752 0.0004968681786141126 0.0041760174396151635
279 -0.0039588042659618634 -5.588335637452417e-06 0.0024962416683678022
98 0.00040660607865811296 0.0006061775992412644 0.0008711582626157844
79 0.0013808585520035054 0.000599459382125186 0.00046138602954460764
181 0.0019166778444130571 -0.0020667932278957543 0.004420263320997333
114 0.001257737839933968 0.0006810057414353761 0.0012652103520393357
742 0.0004409407974882776 -0.004035141819679006 0.004160269832781879
790 -0.0014124805421600114 0.000904885554789308 -0.002479465636951751
225 0.0016540972563101638 0.00011489066279964784 0.003039066140669765
566 -0.002389087830196655 0.002541658647723273 -0.0022660036201270738
534 -0.003609968247707852 0.0001999722368203159 0.0017246590452502219
774 0.004206559773314606 0.003070276619325827 -0.0011862839721109525
405 -0.0005125407036914013 0.0007784399511990977 0.0010683509373956854
203 -0.0016431555073790028 0.002402167024717868 0.0007539418926879358
96 -0.002867552406473336 0.0022603498204353052 -0.0009869075783468858
303 0.0015654762107510636 -0.002767342731901062 0.00011477253719805431
839 0.00020983855096861606 -0.0028820205027777464 -0.0016402311979547821
271 0.00287581588911805 0.001605799211899557 0.00035660825918786313
874 0.00013538657043796155 -0.0018800033477336829 -0.0032236683764700516
392 -0.000808426516055532 -0.0024765661628383348 0.0018358612508426514
383 -0.001443783368178018 0.0009641685250986803 0.00039663573191300617
293 0.0006209735737301994 0.0005889652975936716 0.0015232652754458005
786 0.00040168228134979133 -0.0009085578711855493 -0.0004795011296467483
958 -0.0007308241333981384 -0.0014307481242229745 -0.001154438253322427
186 -0.005068059306641343 -0.003091850332620751 -0.0014981288356676864
285 -0.0003899918416205334 0.002046255556822299 0.004768560883966338
475 0.0008668667703164476 -0.001336637450970332 0.0007186835295177562
275 -0.0026585699687014354 -0.0032820109902328173 -0.0002593197983404582
986 -0.0005169267944198468 0.0017071624145713928 0.000304949938876796
306 -0.00257619722846373 0.0024025747008955215 0.005143598635523337
715 -0.0018578949962289619 -0.0043436198224219786 -0.00035443573262380104
768 -0.0012275877037467883 -0.00034247377621772945 0.0011860626543712125
167 0.004593359400221595 -0.0005204213876384369 -0.0009541569408250251
518 -0.0006767813265137603 0.0003259179246441569 -0.004522773335471591
966 0.00021067543073033577 0.0011301626037798905 -0.0016648352094318169
421 -0.0014064544814470028 -0.0002607972513544417 -0.00036441604473497256
854 0.00047258991418234407 0.00020633535024781448 0.0010588517771932748
799 -0.002339287916304554 0.000620200906547057 -0.0006642310497393214
466 -0.0016030824716828514 0.0008868004532663665 -0.0003467468897453059
617 0.00022921770881648707 -1.9982176009563365e-05 0.0018533398440394929
716 -0.005102801826242873 -0.002065060757806562 -0.0011882083346494935
934 0.00017252798723913114 -0.0017571051870321935 0.0011145534750601129
171 -0.004402104020114247 -0.004709941345953672 -0.00012670910883947066
807 0.004416297310547552 0.0020313475854631035 0.0052888724278778425
661 0.0007566947422758434 -0.0012440137231281218 0.0025177322620447105
513 -0.00270834618608913 -0.0002872038022816266 0.00233277729806902
159 -0.0001026665010269103 -0.002626136715306829 -0.001125806199866148
938 -0.0022951832857884043 -0.0024663331310126172 0.002535246875830464
988 0.00020368649594791144 0.0006235798650428326 0.001161850808351281
76 0.0020544475690044543 0.004358507245808416 -0.0016482881776710696
587 1.3621569438968037e-05 0.0027051006839904296 0.0004589719320327579
668 -0.000787690032070654 -0.001128689976576663 -0.0010083339447520823
961 0.00291384824508378 -0.002888675670851239 0.0009102491075806781
629 6.252105009354295e-05 0.0004900543907365742 0.002833195038502666
365 0.0008518358013293148 0.002837283876304943 0.0012218835927281678
798 -0.0037161724595344944 0.0013886261694996795 0.00267881047512468
901 -0.0009912495651147662 -0.00024334494657169596 0.0023339713389660772
174 -0.000770713477320029 0.002656103909210024 0.0012075934590748884
135 -0.0004667584873526135 -0.0004776336247672099 0.0008871547500755036
62 0.002132800982488711 -6.90616217653264e-05 0.0005561841389995563
614 0.004690118807372126 -0.0027220456265382924 -0.0016908278649074395
307 -0.0033408121302030045 -0.00392463140420007 0.0013293684756939632
791 -0.001133322767552451 -0.0005830077136499356 0.0022724811529970584
592 0.0019902340851920153 -0.0014498878113305756 -0.0025259555071834323
143 -0.004287091843033734 0.0023580382988134035 0.00024025999680679796
60 0.0009895234188092767 0.002207742312484571 -0.0032817893355903596
88 -0.003588085098428996 -0.004421649798300277 -0.00048612450420695716
711 0.004510214667215298 0.0006607565504654359 0.0013522708718319712
384 -0.0009385956635225662 -3.409174894041248e-05 -0.00032728215323896267
998 0.0008544269561657742 -0.0009267939501862728 0.0016963704074491137
631 0.0008980369837600601 0.00213735946799604 0.0003664159602275965
35 0.0016286635844949334 0.0005141223322592248 0.0001430186712912282
71 0.0021581640042577666 0.0014294886371599897 0.0006153222967694116
473 0.0034730076905726604 0.0009156839661511938 -0.0005139196258191381
822 -0.001172592708365281 0.00011586191546301337 0.0017253195617285197
755 -5.904778330147509e-06 0.0004895257854557219 0.003439702203589439
941 0.0008789984468238443 -0.00032656884359955047 0.0021188327501675684
458 -0.0034031931227669378 0.0017877070254830594 -0.0007617576310854499
565 -0.004410674131276708 -6.931241125116386e-05 0.0014824139263963437
42 -0.002549101398320083 -0.0009054470169012086 -0.0004373380620640791
276 -0.001211489699881556 -0.0008189594012029431 -0.0010890645084751089
744 0.0007535762049628515 -0.004543678060202119 -0.0018391302958203437
51 -2.515851599563411e-05 0.00023578490425556247 -0.0035143459571200316
500 0.0002908123397562037 -9.1034896953347e-05 -0.0009168419142992296
561 0.002418361525776389 -0.0018929460094597162 0.0006540728674988113
462 0.002040610590344512 0.0033241419648078955 0.0011885404977174522
359 0.001879138835993878 -0.00025692150852652803 -7.380154854456933e-05
215 -0.0029060728318150166 -0.002799683464212207 -0.0020916871491106666
153 0.00040421023942170236 -0.00021178910633014143 0.0033495863429617587
231 -0.0020601159127685317 -0.0010421844470344204 -0.002268403776968557
5 0.0012636721245262836 -0.002713487126397101 0.0002558672364917245
814 -0.0020810277088980033 -0.0003293187414213052 -0.0006711901238166229
572 0.003503745446890998 -0.0005988547423903736 -0.0014897102043477993
64 0.0006039596807282641 -0.0011189742341236244 0.0017874392033815157
916 -0.001267168640517412 -0.0014472764238029746 -0.0012994375953302808
199 0.0009003839494882713 -0.0006510422595270926 0.0026166512503181796
906 0.0008738527579813129 0.0010876331791294495 0.002609403282880724
107 0.0011456424419180042 -0.0005325525464304429 -0.002064053365360395
956 0.0002153740014521801 0.0035079103681432467 -0.001557534873058383
66 0.000679955721231919 0.00233182171198893 -0.0013117390095795007
685 -0.0024003606588711922 -0.0009147985815357133 0.003644323149761315
401 0.0007084392018656547 0.0069485866388256275 0.0032029861853438424
355 0.00033813540926832657 0.003332546083728711 -0.00011222772550592455
871 0.0021313848278295866 -0.0008939201550086959 -0.0006351350381960508
553 0.0004365350956299414 0.0009539644622069799 0.0006030431452096515
945 0.0018076407643994486 0.0007012047311500648 0.00031685872151851415
687 0.0015188114377361912 0.0017445526720883907 -0.0020928644626405824
390 -0.001949280031490979 -0.0017041370235809218 0.0027149464096193152
873 -0.005442500979897151 0.0008290735041718511 0.006275272872648113
842 0.002956302291440494 -0.0016831271346054704 -0.002330456054221325
796 -0.00022720928986588122 0.0018370168088282118 -9.610511465846527e-05
265 -6.874901561924165e-05 -2.693946515152719e-05 0.0005634797676585011
912 0.000849487133530983 0.0012861061962433648 -0.0008234153528102143
908 -0.0003232346284296762 -0.00023241920186698684 -0.0016028885702791514
784 0.001010084989345484 -0.00034139387281062006 -0.0028722609420508446
372 -0.002818043968955523 0.0013350884489710193 -0.00039385743177624015
939 -0.00038561394230973023 0.004522890995938643 0.00256675850253356
764 0.0010148951822242732 6.489999064845947e-05 0.0003084484760874748
963 0.0012739630546000178 0.0014479311860432415 -0.0011850888849107503
937 -0.0013904211309061127 0.0012013846011344105 0.0005584916353030974
48 -0.00033355291650944 0.0018438148918682896 -0.001554316205730634
861 0.004350496658601202 0.0001375039794582894 -0.00018552222440530356
816 -0.0006254309637131131 -0.00645710030186132 -0.0009675314467322127
864 -0.0007285140814139316 0.0014586845619617742 0.0016201344802309343
978 -0.0016417300259698375 -0.0004961722040867114 0.002432687919278275
810 0.003644879988014534 0.00599215729726701 -0.00033406291472234495
267 0.0030424338816577023 -0.0020668654623917752 0.00031683248519547567
868 -0.0013378540001596506 0.0004065532364505116 0.0005194152591949492
858 -0.0038621445263310053 -0.00042385569009136963 0.00036362806245890655
280 -0.0018261235970176365 0.00021210592418176793 -0.0018669211823946718
94 0.002890427579736736 0.0007876415091978892 0.0011416623395071428
318 -0.00010834725484146863 -0.0026263030704451796 0.002031249970952264
773 0.0010397298191053184 -0.0016468913182106238 -0.00036252998218641103
408 -0.0007034769227104434 -0.0019509121228780083 -0.00047809273676832035
471 0.0009977733908651091 7.263158122974606e-05 -0.0036241832973281755
482 0.002029630034746896 -0.004158965137805383 -0.00034470528300263115
326 -2.705964535340885e-05 5.665209095018223e-05 -9.702898546550912e-06
183 0.0022132281675653165 -0.001070615022629755 0.001887755425362858
909 0.005176169502794313 0.0009921803864229813 0.0038229463164286956
589 0.0004102947216746906 0.00019930180538172885 0.0001061074947807291
911 -0.001100398214736264 0.0036328402539705274 -0.001386376346513767
59 -0.0013139386938145039 0.00379129193667065 0.0018454342406333522
659 0.0014245750804231948 -0.0031975988302688036 -0.00017955644184850617
273 0.0030373617253266253 7.817359832725954e-05 0.0008330284417029186
591 -0.0014444683113886434 0.0047195179778599 0.0010881290531396868
123 -0.001281442578270122 0.003884861256073442 4.830893486167309e-05
290 0.0024920650189107067 0.0031119313101961358 -0.00176237389234854
389 -0.002627557453909984 0.001501593154683717 0.0005311984340139648
914 0.0032975848432451487 -0.001761030647649828 0.00043071995639028276
99 -0.0001575407009718084 0.0012638711039111004 -0.0030591809299115556
840 0.0012873645454778457 0.00021548267803022677 -0.00205997784033241
848 0.0028320990589369914 0.0038984721037893014 -0.0037307896030961906
120 3.9197608413200176e-05 -0.0028370726833644106 -0.0016972171845878923
552 0.0006902072095418413 -0.002335476356660251 -0.00015587873238474755
410 0.000894403274923683 -0.004470574527537178 -0.0009553525651288777
334 0.000641065924471653 0.004656284862402277 0.00225431353893826
243 0.002101054482375573 -0.00014633155404085725 -0.0018160193075565934
418 0.0009150039958840165 -0.004283871541851478 -0.0013271338095128486
368 0.0030657001939420917 0.0023816531574008355 -0.0014132548681168964
331 0.0027019091480527508 0.001033839771046458 0.0008028642458123943
542 0.0038985844691123567 0.003709772610871823 0.002718960670483932
391 -0.0006661708060960606 -0.0003660657326079295 0.002039785490715619
313 -0.0015037836136544366 -0.0014515315113448146 5.19352023161143e-05
116 -1.6517240263969498e-05 -0.0015590958971740628 0.002636803944994058
477 -6.793753978887978e-05 -0.0030941476322887346 -0.00019686511276497545
888 -0.0007476882083948381 -0.0010919738167320472 0.002903959923083883
952 0.00040733199055680854 0.0005299609775166978 0.0005950117859571595
615 0.00022098724141094263 0.0016461530371135137 0.0006995902554572432
197 -0.0005474534588759378 0.0015470947664575495 0.005019273158601878
119 -0.0010608256389721662 0.00193997095781344 0.00011659293516736104
905 -0.002129785397346225 0.0014172213931131672 -0.0018990040910445499
684 0.0030784100794513302 -0.0005846303127490568 0.0017796675785524748
722 -0.0016437709624247624 -0.001267589898793397 4.7474286929041616e-05
680 -0.0013902054071932453 -0.0016871178327318717 -0.002155426432293499
264 -0.00022357290159320483 0.000663219422677783 0.002915153082137215
238 0.0013208443291841186 0.005408250205914232 -0.0019092618055325215
138 -0.0021680454453456587 -0.001802390128281403 -0.0012402594347784126
257 -0.00041828876794662974 0.00333047525409562 0.002284879548431721
895 -0.0033850782342649687 -0.00148470896501798 0.0028061259698048263
371 0.005546320095952084 0.0003783781501487906 -0.0004283354911235232
407 -0.0021727581269801372 0.0013592419444468681 -0.0015825471507299078
140 0.0022344803850346913 0.0031794521099791323 0.0014564497267732512
434 0.0019357775969520027 0.0007058784282721331 -0.003591919496894333
403 -0.0009068474023138151 -0.000278711193803604 -0.0009096409929772943
699 -0.004329797350098841 -0.001368580178977791 0.0032612480660621852
347 -0.002780991953861195 0.0022516974886790785 0.0017329490174207358
530 0.0014549420088886382 0.002045182072718447 0.0036119523834705143
18 0.002996816702320608 0.0007052522845515014 -0.0017799056886242599
720 -0.0036712162519981877 0.0005346137157402989 0.004350831886748824
599 -0.0032631031509998444 -0.0026034070571391015 0.0013229297629783051
999 -0.0032848669292725122 -0.002035047425102698 0.0007971980263192001
881 -0.0004250975338905404 0.002454884382467093 0.0019733226955892945
969 0.0020287920543261735 -0.0032869798503797746 -0.0008063356184921375
752 -0.002469827728537963 0.0015118535994683062 0.0005355440753806567
85 -0.003635219704867576 -0.0014780812665593918 0.00224897858653683
698 -0.0024666971566474696 0.000838631974439612 -0.00010203257434592728
61 0.004137348028800859 0.0014125963568040055 0.002065019278671003
648 -0.0011080282733288574 -0.001307456633454822 -0.00040034281084874946
782 -0.0011125085255067116 -0.0012285277234030981 -0.0010881277190310365
157 -0.0011983109166669348 -0.0014937988295710821 -0.001946730354300718
621 0.0010819066868551052 0.0031753360097065047 -0.0024203320556583983
358 -0.00036174997612996155 -0.0007129694454606002 0.0027944025356136256
463 -0.00044269475130479283 -3.466926788826788e-05 0.0002078070923322309
843 0.003673041834990208 -1.821941610014716e-05 -0.0013560033543652825
400 0.0005622522374639344 -0.0001392075958086181 -0.00177470606484327
282 -0.004968844174639463 -0.003692786308458664 0.0017823983389297557
376 -0.000415699974060651 -0.0005813076817161839 -0.0037966277111983458
332 -0.00019516785948853947 0.0018350836454013645 -0.001162102400966287
792 0.0021920079914417227 0.00014728821805717827 0.00194724495643023
811 0.0009259018043511584 0.002099745356634606 0.003124329548985411
464 0.002101490794059372 -0.0008929028311056236 -0.0001272137618201178
423 0.000492577651802762 -0.0013817382448133029 -0.0005213033777177553
499 -0.0005299863055043705 0.0007578503310937257 -0.0015087933706557928
170 0.000999087398846463 -0.000959444668284539 -0.0025698235501355085
19 -0.0005620789137772369 0.0009083141421800616 -0.0010618526713509942
819 -0.0016284420016911938 -0.0027730584472541605 -0.0014800548910613312
605 0.0006269706725856477 -0.0024308466355078403 -0.0006567348492334249
677 -0.003307395362443391 0.000794161590737791 0.0009907489937689168
241 0.0015314295518901529 -0.0004641235411645637 -1.0393484166122506e-05
351 0.0020135642750661754 0.0022963348257331387 0.003021773613234949
240 -0.0005289415127569873 -0.008726463609894927 0.0016144042063392454
117 -0.0005548086054481345 -0.0009526794442379556 -0.0005418161500882936
789 0.0009109832530797426 -0.0008044291801690693 -0.007445440676619451
865 -0.000919213409497714 0.0025626818737769135 -0.0029016766698270564
924 -0.0006760039004622704 -0.0013445778998640758 -0.0019516989629899412
374 0.0009829428116161665 0.002929930194025681 0.002765537852840096
399 0.00048432512992248626 -0.0006580063863624647 -0.0006583223868816798
759 -0.0009101839042644822 -0.0016654886027201836 -0.001235379636545028
653 -0.004300802944064949 0.000718102255697272 -0.001759645157550779
445 0.001199694222818571 0.0009643895576578211 -0.0025428427918525744
931 0.0018149378386497796 -0.002294167106329085 0.0008421973352716104
856 -0.00450284642299744 -0.003993005237921821 -0.0030047149240110716
47 -0.0009742911696729956 -0.0011570783794817528 0.0032726911503256286
362 -0.001840073161446608 -0.00012327354058010566 0.0010307449197936565
749 -0.0004645129195700018 0.003133679190961158 0.0026714519134450024
950 -0.0026698068531323888 0.0018578690163605764 -0.001996273025870812
514 0.0003804437878347608 0.0033291281760234074 -0.00622285951611198
512 0.0019573851287493995 0.003031855511143221 0.0014711040685495068
835 0.0028788907515623304 0.0055906372857793185 0.000992322456433468
869 0.00011923525491997608 -0.001040301927962326 -0.0005803619740930512
627 -0.0066591363009579 0.001966152712870136 2.04631398895756e-05
776 -0.0017477063634255476 -8.65655413156097e-05 0.0005417851159435063
802 -0.0012952739252084606 -0.0012578045743393514 0.000431796658038447
568 -0.004058147575843281 -0.0022276987301848373 -0.0025281824486217833
235 0.002453293244471731 0.0032525610305373385 -0.0014966486463116554
536 -0.0036099677710050102 -0.0022577291526933623 0.0031646081300056974
721 0.0017543143556849284 0.00012889042803708055 0.0014646110552748019
21 0.005062991800044926 0.0029057027185339476 0.0006608506677268155
985 -0.001128140982962122 -0.0012833107557436731 0.0003450605546085276
208 0.003514966973728956 -0.0029420308359927594 -0.0029784874265193473
77 -0.0018128278057815536 0.0013557673086011931 -0.0008303249656520664
777 -0.0018017826644232135 -0.0006504648379838548 0.0020100036832757426
860 -0.0025319739565846404 -0.0001478980615875942 -0.002336314803126603
983 -0.002592557802372092 -0.00010979026993259563 -0.002988189306006001
994 0.005491261410923073 -0.0011488807708252523 -0.0013681290467396595
2 -0.0005958231326179961 0.0027485249427394755 0.0011074130155549562
655 -0.0026344237039494936 -0.0021180428337764018 -0.0016308229456433877
160 0.0019336180686991772 -0.0033822146081085077 0.002837911857323678
145 0.0032998839398568477 0.0018943124685216464 0.00023015585526172007
56 0.0006477751903993639 0.0005088441275327524 -0.00020595845548205803
714 -0.0038705175436261016 -9.274301791897424e-05 0.0006373951364030247
8 -0.0025926490530408836 -0.0006792081096551832 0.0032923868285335118
210 -0.000830725156409646 0.002266735011277819 -0.0002657687504568049
442 0.0020723250563001077 -0.0006143621124094298 0.002676583441686724
616 0.002263914815609004 -0.0019576159879339406 0.0006007999535090873
522 0.000415511229974291 -0.0013247337803512645 -0.0012679230341271466
557 0.0007416333076130305 0.0011130613777758588 -0.0067013024809760065
562 -0.0009578950862549248 -0.0010858518008020593 -0.0015007674358431806
831 8.191873715600927e-05 0.0011987193872349388 -2.1831639986096807e-05
933 -0.0001297548492569328 -0.0056925490343353495 0.0028205251678320997
647 0.0018901241405551233 0.0010584462952438853 0.0022541481837559663
252 -0.0010046671665547428 -0.000912305426000112 -0.003162724309369047
454 0.0029141466393294777 0.0011603075783330455 -0.0015650929329537834
226 0.0031257640331215334 -0.0009718278179155567 0.0016385567276831275
41 0.0023320768565107054 -0.0009818127823954515 -0.0019480913545730349
708 -0.00029826080129343797 0.0019801210729802317 -0.00039929923001239865
980 0.0026702864365928092 -0.0004013471973394876 -0.0005445232698726158
220 0.0035078479100414447 -0.0009698913098518938 -0.0011368419148341418
216 0.0008528876624632711 0.00035110084241095655 0.0004119335623829349
713 0.0015764903988073383 0.0009517099665131223 0.00022764051165013018
972 0.004655963241784082 0.0033726704717357272 -0.0017759871991539344
548 -0.0006109596612565369 -0.0010717353081576434 6.015963423395437e-05
870 0.0007238932826397462 -0.0014120798964996541 -0.0038453224475321897
640 0.002185564094310658 -0.0005515834315176584 -0.003178120962154071
921 0.002742910636939649 -0.0018287916208831918 0.0009742089135052554
357 -0.002820134820512765 -0.0001247675874420949 0.003977340292514621
439 0.0023731174219006894 0.0043167636546124245 0.005888441976196558
387 0.00047919090187304 -0.0003231519287695855 0.0022978563458052955
24 -0.0004997700240190165 -0.0021034454576101627 -0.00200296521460475
689 0.0034994260585686316 0.000729623802432954 -0.0016928446295897863
80 0.00027986550335995893 -0.002330330806710557 -0.0025614265118216466
455 0.0040760091161955786 -0.0014079034601931083 -0.002537435452888515
450 0.0028312269542075173 0.000919166469775823 -0.0013361326706679956
490 -0.001255727645112729 -0.001224602372043229 0.0017847121214680085
730 0.00037587791557426 -0.0005714131726246285 -0.0014951995810495225
701 0.0005907192963023932 0.0009995473689683985 0.0031940246738577267
907 0.0046273983392762525 -0.0019940422557814686 0.0033396028476629447
910 0.002069066859156582 -0.0031441803263873177 0.0009767136145590286
828 -0.0008143440507969703 0.0024223363510864604 -0.0002965103870930598
903 -0.0006893391962773583 -0.00020449305192190954 0.0005813675511620444
702 -0.0005535437518114394 -0.0005809282547938001 0.003741500634292603
778 -0.001459711268990602 -0.003048304193862907 0.005357877987072031
457 -0.0014468578143243917 0.0017193733126837892 0.002604128883195161
989 0.0015485239616364484 -0.0002241163955732996 -0.002849264320249864
55 -0.003352624841510735 0.001993439350041439 0.00019285018974880702
884 0.00035806296422814213 -0.0021604930609695617 0.0021093710964850596
237 0.000696342220833839 -0.0004830073426438507 0.0024082183074282818
381 0.0002977776411662948 0.0007289205284324491 0.001683205229503595
325 0.00026496422793359005 -0.0018404465495716448 0.0014485348537374748
69 0.0003070717947745078 0.0016122368752452894 -0.0014233328501969354
453 -0.002289643263360515 -0.0005707463830564091 1.7521457167459025e-06
665 -0.001381675818505535 0.0008522319511068029 -0.0037997487933981735
361 0.0011920166962530675 -0.0019272376383098976 -0.0032099125284827616
319 0.0007625039823850511 3.4849073833540225e-05 0.0058334378705491635
224 -0.0002276279612535897 -0.001071685810937867 0.0013588242507393822
22 0.0008505614319427909 -0.0005337922348552161 0.00035895595452116864
918 -0.00022744360994269276 -0.000735379599622787 -0.002329128413167578
156 -0.001295405899443824 -0.0017483925540100376 0.0035770548427376436
195 0.001982164153831008 0.002142846171628336 -0.0011408851183813049
164 -0.0021488133659427495 0.000609878478101605 0.0027363647459308464
291 0.0011070096741005778 -0.0006549391659425786 0.001890345782951152
205 -0.004901943758405056 -0.002352225154231659 0.00024244458589356625
588 0.0029072653206767725 0.0018384059030427558 0.003782241781630302
262 -0.0010373034661936371 -0.003845161862910962 0.0024650599580750983
414 -0.00017848618321783028 -0.0039070925376694975 -0.001324384192123606
269 0.002485817285388699 -0.0009754527178989077 0.0004510565811282144
957 -0.0010729691096658142 0.0013263039018498017 0.0013210269962935916
398 0.0012659290047570936 0.0019674366687465047 0.001508140581254458
521 -0.002609674142277591 -0.00011971632156059524 0.001396745008656219
270 -0.00027477948695644436 0.001363455125870211 -0.0003743518523761487
596 -0.0007471968360298369 0.0015128003836540986 -0.0008538202922229992
426 0.004733286522513491 -0.0008882552079380259 -0.0027672153958314674
386 0.000398603378773539 -0.0009606827988913123 0.0007294919623131717
278 0.0007174898929771551 0.0010073397610072955 -0.001805352894069635
844 0.0007151669863878946 0.0016736168172184183 -0.0010156146553685127
90 0.0003109065602836452 -0.00425499566784378 -0.0022073767139950107
607 0.000677888222786777 0.0039629182561506625 0.0009913324292787332
976 -0.00015961184598415823 -0.0030791391732048756 0.002040285507773016
317 -0.0008764439414126624 -0.00048173429971066736 -0.002837818495050375
692 0.0035106454540347236 -0.0010906357527694756 -0.0024144900185713606
308 0.0004983454557732893 -0.004074097460388702 0.0002805322358613443
915 0.0005148028751826854 -0.003020727338443315 0.003379197773914447
667 -0.004161010154371946 0.0018820860752043645 -0.0033125306081643697
830 -0.002583928852550894 0.001540002832332562 0.0009487978604952166
955 0.000479815211535304 -0.000205991042190736 0.003051521808518033
508 -0.0027305404847496237 0.0038160869949425977 0.0018708781302120884
892 0.0036573186271939644 -0.0011441083054657116 -0.0009768827362360323
336 0.0013321457305802776 -0.002930187587473594 0.0011245635805507946
797 0.0029143847496626587 -0.0008319362507886803 -0.007223901705839015
146 0.0005321627348790852 0.0006672253663470634 -0.00024062976858838685
49 -0.0021799083737436185 -0.0005310659631963092 -0.00017633687835069844
375 0.0016401993966569863 0.0011158654531024958 -0.0004596434869138044
662 -0.00011618472529994148 -0.0009559769280612086 -0.002009827545491247
846 -0.0010029032606262054 0.0007207034742657776 0.0017591995295470895
136 -0.000832467879974943 -0.0020118728784152395 -0.0009552040069660861
593 -0.0009032051674871531 -0.001192418236410905 0.0007384948750953544
654 0.0016196438764125218 0.0003147850218618806 0.0035872340385733757
494 -0.001413671149037126 0.001565801160873858 -0.0005168094008025266
775 4.1589197237037505e-05 -0.002764150159808191 0.00043341640174726154
772 -0.001558162156891982 0.0020856311363725293 0.002138723791062264
201 0.0017177174106616834 0.00040723892678767507 -0.005334099374919789
388 -0.0025894158176187165 0.0009737527390897757 -0.005225889578207053
761 0.0015012481451902198 -0.002366867224558426 -0.0013360675915631613
623 0.000379966996179675 0.0026219456580289778 0.0033725158806874383
272 -4.870922496147105e-05 0.0016090271765667734 0.0021905313789484025
719 0.0013091108606158367 -0.000888488113480569 0.00020155316369319755
130 -0.0050417168100645865 0.002268881319081475 -0.0033548567147039703
185 0.0012908797567317695 4.871839253833511e-06 0.0003369386842589137
815 -8.494879096488445e-05 -0.0005982236740374416 0.0021447810107375937
6 -0.0031291659878057475 0.0008042357896853864 -0.0011444780965588707
948 -0.0023974764216120855 0.0019258062055063961 -0.0017741115205905933
930 -0.0003355622020971083 0.00465983016266852 0.001352538239987477
78 -0.0009554360675435451 0.003416003775185337 0.0010533765236537022
748 0.0017868428810312537 0.0006852112053044505 -0.0009560331341527469
602 0.0011062475225833135 0.0030759803035975367 -0.0005057392270544627
444 -0.0019506055757410525 -0.0003661053559129945 -0.002342313071173148
227 -0.0007700136697730108 0.0004087900300046997 -0.0015054027704889132
93 0.0010689543855727447 0.002841742731475941 -0.00443719713300606
212 0.003385947807055636 0.0010761831471303158 -0.0006161667400391369
633 -0.0016199182723317732 -0.0024554799305799373 0.0006740985330189614
877 0.0027253538117004094 -0.0006551874062047015 -0.004941640076952112
664 -0.0017982069569905646 0.002478862525457113 0.0021231918613986754
612 -0.003639392143421464 -0.000789582485673467 0.002492503854254049
691 -0.0023695068674489264 0.0008913834479487852 0.0011147862885776251
484 -0.0020547478182294586 0.0047536901833789055 -0.0006289661288941226
519 0.0016471180043137919 0.0033636448516206614 -0.004053093732838534
296 -0.0020516132021078633 -0.004363461817734658 0.0008559472138746157
785 0.003399430390046838 0.00038568764730343206 0.0006508465100417745
920 0.002466978999218158 0.00376408749515042 -0.0048341062998404185
675 -0.002211295310387892 0.0004706901576137424 -0.0015625711766413444
1 -0.002749243352447983 0.0015576854774382888 -0.002178757802665004
841 -0.00013035803421100741 -0.0027503521465386434 -0.004028023371009997
483 -0.0016929973714219278 -0.002870379722521388 -0.0009923252306806626
28 0.003068070118153003 -0.00025661587181052386 -0.0008096254332216476
851 0.0008847065247512135 0.0040054586580101 0.004303028500297965
479 -0.00046200357002302027 0.0030326357085839173 -0.0008100787588919281
704 -0.002252883785851667 0.0011174232507790561 0.0008915056296886663
310 0.0040891971144708175 -0.002887157043024309 0.002367221864799017
693 0.004003392445819088 0.00012310527922034775 0.0024285542467648363
91 -0.001107833483479205 0.0006668688720029146 0.004369484568273759
245 0.0005581037828055356 0.0003617125825491347 -0.0009614542926357721
44 0.002181239222844118 0.0005241456333859371 0.00035926752233605215
188 0.00033953718984472127 -0.001907611102386547 0.0034628282980950003
37 0.0010603709712083372 0.0027467999485295924 -0.0017666718236414294
230 -0.004479898898514235 -0.0005788522296186103 0.0006555013467957601
100 -0.003274846006785875 0.0017687252152791288 -0.0027616934949375588
430 -0.0005489322524088887 0.0014300448807585495 -0.0005988325571052165
925 -0.0019524598491248324 -0.001983215507823631 0.0013602169671840109
187 -0.001915056779280303 -0.0003768923566550077 -0.001380577657330824
673 0.00032753651973420176 -0.00021676970669046972 0.002215091858043479
531 -0.0023190504387116248 -0.0009370272223346693 -0.0016244716739437027
787 -0.0027342008142608927 -0.002338540428696786 -0.003291108931328454
459 0.0031855558038039865 -0.0007830932314862816 0.0011982233876596117
341 -0.00340548570537126 0.0031967741547072196 -0.000803066501983303
207 -0.0015608028966275773 0.0026594084334886922 0.0008423274028575962
14 1.9981047484761536e-05 -0.0010313439798929783 -0.0025806028061651333
395 0.0027918182705758423 -0.005423958857454496 0.0043556720962668145
995 0.00016440849205537686 0.0008521697475193604 -0.0002225681384949961
12 0.001109489653413356 -0.0021242726486778015 0.002695317206166177
964 -0.00128991994693546 0.002667743913462989 0.00012240192897942687
947 0.0015491989348662724 -0.0009198471983596377 -0.00326156190280189
469 0.00039509509723341596 0.005004651587537161 0.0011846051010555218
897 0.0013765381572655986 -0.0023877544012175793 -0.0014089782618602203
29 -0.0025891466566746674 -0.0023535324195062806 0.0031190248355642365
853 0.00014472363673293786 0.0004354391002329303 -0.0033123401267672837
987 0.0005115923817265578 -0.001619801208682121 0.0019850837440646522
639 -0.002016627465757764 0.004831067166758145 -0.0014013489936553242
67 -0.0025254109175160567 -0.0010682920163009866 -0.0024169998281958352
209 -0.0010276071948225713 0.0016394678445933286 -0.002105227556127886
669 0.001071104138150827 0.0014617220518721452 0.0008536604873325907
657 -0.00154659035460692 -0.0005702846525192875 -0.0009361073542378133
570 -0.004664674964239997 -0.003764038987203726 -0.00028576428763135405
461 -0.0020316932586828358 0.0008063709474662196 0.0007463131317115177
417 0.00313030806956318 -0.0004166252482973501 0.002610968274625921
805 -0.0016629391238841909 6.002784836864744e-05 0.0027247327153924407
261 0.0005969345949582754 -0.00036849165045704747 0.0011696328853505237
431 -0.0019697093147004155 -0.00022987386683745442 0.003346156865963969
555 -0.00032424284990263853 0.0029750266210163186 -0.003062522991122236
824 -0.0009579451850406058 -0.0005988248985277379 -0.0005975403635331744
253 0.002369848629780064 -5.0013153259752556e-05 0.0008150955259358148
113 -0.0008325443024831654 -0.0017854085605609857 -0.0026201261019977175
887 -0.0019471441335812915 -0.002801363519495933 -0.003045569922495562
718 0.0012193598922977612 0.004168369773462512 -0.001614362375373697
478 -0.0007025354912950902 -0.002374833840272318 0.0021144941704461305
488 0.0009439264069466517 -4.370002782766556e-05 0.004887248170924953
563 -0.002486779593114701 -0.003333694066052762 -0.00012133784712074755
446 0.000694013442637412 0.0002995697101545859 0.0010250905450016
429 0.0003648956801372723 -0.0024971678024612964 0.0033936768405393616
219 -0.0015816614672149985 -0.0003832487870615267 0.0003488304184965513
385 -0.0042924155410197645 0.0022243135156377897 -0.001325859231690303
20 0.0016282141994019934 0.00017334933799950685 0.0046211838900346615
902 0.0010761564747034757 -0.0007298511919363594 0.00047339166849482073
867 -0.004435220828969405 0.0016512928574316434 -0.002088758638803157
509 0.0010478804431124406 -0.004751461363414515 0.0038363114565650902
619 -0.0030304280959589616 0.0003825904944863307 0.0003685156350776274
436 8.41295133700148e-05 -3.52385400358798e-05 -0.0010890025422438702
766 -0.006168953080433235 0.0014269637547142304 -0.0038380130475663306
314 0.0010284270818368506 0.003651235163815952 -1.4724415168162112e-05
162 -2.5565269410917193e-05 -0.003959263077881282 -0.0034542965584076477
239 0.0017029121185364313 -0.0012286482907781216 0.0028358840764366516
449 0.0017687210266514462 -0.003195645638727257 0.0026035954705389336
502 -0.0016572375910474612 0.003537238783958123 0.0027776207567749593
670 -0.006743779036023156 -0.0012720811672687446 -0.003120493089173986
287 -0.0004970523734240761 0.00029563327964148814 0.00028417023804259647
505 -0.0014024779940786463 0.0006050591128434637 0.0018632815840610442
127 -2.0641659170604427e-05 -0.002407864292809872 -0.0013194337251666555
604 0.0005270935307242096 -0.0012340288109228567 0.00023777309578767482
875 -0.0016163369932734393 -0.0033911392325701468 -0.0009146000763058304
558 -0.0004638187581260656 -0.002841610384566358 0.000782433285714585
33 -0.0034574496229166918 -0.00037918499476377994 -0.0035381182414565672
103 -0.002423616587274936 0.002545371539819494 0.0005122724629646858
316 0.0034044169464329953 0.003050486676860809 -0.0012622967684877689
251 0.002826335506625071 -0.0046004736286954125 0.002681939836159023
613 0.002566723152296152 0.00011572562496959899 -0.0032347702911494406
440 0.005082325099708508 -0.0019082327369149771 0.0018348666032729933
515 0.0023505243246419788 -0.0015638635327898016 -0.0003833734248593642
223 8.65295852930599e-05 -0.00312604160828732 0.0033598545458889463
821 0.0010421966959764254 0.002542511747596704 0.00039596616281912703
666 -0.00043833357181417626 -0.0005106878814945447 -0.0010768836025408966
650 -0.0015853247323322685 -0.00029707907747456133 -0.004052721286572476
993 0.0016272845940071877 -0.0006090417848349379 0.0024335421339274467
706 -0.0010557665037752234 0.0010052106511144224 0.002123635879483697
710 -0.0011409982536500886 -0.0010650331161128513 0.00017083451258545048
263 0.0009491456085832687 -0.00023828949874941032 0.0008111424199524926
394 -0.0032378415946290083 0.0015042059180493525 0.00632262383808731
926 -0.0017384806456164404 -0.001336387379351392 0.001262219749272943
192 0.002218830599896541 0.0012935065583482242 -0.00027323289246336877
248 -0.003416931972604922 -0.0009093138087784703 0.002871430310084501
696 -0.0010113286919529554 -0.0031303538662834094 0.0007576860457575171
836 0.003359913027415233 0.0043301813834291675 0.0009620339048432208
929 -0.0017844000987026845 0.004115378683480481 0.0016574379742872718
862 -0.0013095700193380471 -0.0026477939395634807 -0.0034918040828831377
221 -0.0005760205882425093 -0.003344960241692767 -0.0035731166300418736
154 0.0018606167783480777 0.002755707640097036 0.001975741504007112
845 0.0022993997632402507 0.0007861420412908366 0.0009484001678596387
837 4.1914619127897136e-05 -4.1978237350724283e-05 -0.0005309971087568685
574 -0.0009424346334768539 0.003290638495838329 0.0021712540059580206
104 0.007034393536864285 -0.0024443405177867468 0.007100937572896141
15 -0.0016456724522447522 -0.002217333639843976 0.0007383751846744421
72 -0.0022120223418356077 -0.0016531435499111673 0.000917699777374823
781 0.0014984342695396624 -0.0008266274397559145 0.003391405837824309
256 0.0015242736645910138 0.0036947329206263105 0.0017349334707359102
132 7.641928069088034e-06 -0.001068457140074385 0.003078158913015676
795 0.002228150372729562 0.0026884010214748497 -0.00100176873137699
137 -0.0008409224658196107 -0.0017515896324520992 -0.00010871281431789168
161 0.0010482436444442765 -0.0008789144994533691 0.003729400509044712
601 -0.004040023794194079 0.0008224817676633172 -0.001296171210383839
204 -0.0035571742596407683 0.0011485340504285395 -0.0012984797047224357
788 -0.0007428591568783099 0.0021041038350865307 -0.00504758726097624
959 -0.004061734474250881 -0.0007916743911941184 -0.0017423318187595842
422 0.0016206040848164073 -0.0036920821512789028 0.00031045136373950824
769 0.0017475870004412827 -0.0008590501432327898 -0.0012943730990023052
586 0.0007417121710089433 -0.0035809690496334764 0.0025860176313872753
165 0.0009018723805444894 0.004598505578637437 0.0006835842906118616
582 -0.0019014227136737681 -0.0034733632629617302 0.0011085554885363225
620 -0.00205252008297733 0.0023474933650654297 -0.000521730157374476
342 0.00041811886331418683 -0.004419846075104687 -0.0030580121694025407
780 0.002961522298512142 -0.0011916207782211245 0.0020618662941055926
758 -0.002054160384272627 -0.0015728368179829667 0.0006692121351537823
603 -0.0014888663175251396 0.006790818514114069 0.002083413357668051
166 -0.0014381673200203797 -0.002501723883967925 -0.004955357334694261
569 -0.0017278517889605055 -0.0014600235125342032 0.0012298500949922536
726 0.00040057422898566366 0.0023842023561658366 0.005347460471871399
366 -0.00013568408275507803 0.0012031723690492158 0.0003356920414642823
626 0.003994962265250008 -0.0016312513314260854 0.0026452706874125114
970 0.0010074321379954674 0.00037611225591427773 -0.0024872085220008647
540 -0.0026416038027622015 -0.0003764434966064542 0.0003179931171115982
974 0.001162290640571542 0.0015688282199081472 -0.0007766312862854288
485 0.0022502835598434048 -0.0007539192035235091 0.0005639401561888661
309 0.0009685849018912287 -0.0020804353986809887 -0.0017266752345394363
300 0.003349072463389998 0.0013985611764870307 -0.0011198983776784766
435 0.0013013960465704092 -0.00032643457253096726 -0.0007589327447954547
549 0.0038054135870648556 -0.00018944294286438025 -0.00048016720022942374
304 -0.00021501634173782833 -0.002542376260061432 -0.002144500844405968
585 -0.0019788382769137013 -0.0017524559623929238 -0.00017456938762603372
65 -0.0005023789028762451 -0.004221567005645259 0.0005358567597186743
529 0.002596001764232976 -0.0019210832471148363 0.003417189017711664
973 -0.0001543527100827565 -0.0009572918492051505 0.0007136853183595701
26 0.0013536880953177143 0.0028718094287105062 0.0005724997095168182
891 0.0017851459611551274 -0.00012261333380020914 -0.0028433074527980944
770 0.0003280710816834347 -0.0031238463610012606 -0.0011272006197167726
923 -0.0004749565303485481 0.00034654433143123674 -0.0012545480070121574
175 0.0010186608830203548 8.224224001106879e-05 -0.0021755447845973937
852 0.0018787317596456554 -0.001241094921836513 -9.75195944912418e-05
686 0.0006729353843132091 -0.002844388967184968 -0.0006295833296419233
378 0.0027201456272006406 0.002591468419072683 0.00015382046222520618
327 0.0008693380567948491 -0.0018942067780150433 0.0052177131239697465
122 0.0010396188609898336 0.002241422366305308 0.00024573060852816904
690 -0.003367365364384651 0.0010037650549337628 -0.0016731236468281302
448 -0.0004172920222967675 0.004011753541721342 -0.0020663866609789243
36 -0.00043510534206102965 -0.0011767646526654107 -0.001775760250340461
232 -0.0002168462905737797 0.0029114789664058467 0.0011224933445756738
889 0.0007415628102182627 -0.0019173383188475297 -0.0013046043562132492
899 -0.002189763078311864 0.00249394900987575 -0.0007789953993133998
740 -0.0010917910618868205 -0.0021501245353712593 -0.004102495582265469
250 0.0028076251968612532 0.0013980250044133855 -0.000519486401999747
541 -0.0017748991062524332 0.0006397372300964521 0.001537367998118065
393 -0.0016983830814471777 -0.0017928007856707763 -0.0008051451629784948
578 0.003003575858213057 -0.002200048032060469 0.0008465711446871173
951 0.003003137383403595 -0.0012076367405890512 -9.37746322806857e-05
663 0.0016490097282791868 -0.0034778865677993253 -0.001857314956583034
979 0.0012680541856287385 -0.000861465559172369 0.002030279459174741
760 -0.0031328058924456332 -0.004518808328582303 -0.0007560835728640993
554 -0.0011533739921972845 9.49382892451126e-05 0.0006599855963420496
498 -0.0012370078755367217 -0.00032204627135213096 0.0024653939697593637
126 0.002953242514118884 0.004678070266850407 0.0004196420160842446
547 0.002440059873209708 -0.0010827970615079655 0.0010684210460022397
954 -0.0010633025048162256 0.002214984796546352 -0.0013726438713932549
339 -0.0006676415912389726 -0.00011966104459258058 -0.0008210266841531604
367 -0.004277071122372036 0.002013723642705168 0.0013665425410320877
590 -0.0014722021353463352 -0.0018344943539061488 0.001890312353692514
112 0.0017728142154474792 0.00014926535878894098 0.0009215602664281977
825 -0.00042138012815907125 0.000176839517581661 -0.0019017170347599437
283 -0.0025383700435735843 -0.0016720878170890811 0.0049771334727056245
492 -0.0009606808341921027 0.002392612728124085 -0.00505687340254938
7 -0.001180364428324274 0.0009465969915819273 -0.0012960045447898078
217 0.0018496255432229947 -0.0026082683876248146 0.0008165987003545013
946 -0.0007510405346314539 0.0006097853077341775 0.0024819668464840803
611 -0.0012135545934828494 0.00015666342954675938 0.0006400454756594222
818 -0.00032590524556132613 0.0018280322371681226 -0.003593710844648227
427 0.004247590892707691 -0.0004001432183636686 -0.0018656720815574855
806 0.002560344081879287 4.82013410815143e-06 -0.0008762746180843471
886 0.0014582728611227168 -0.0004460892020083793 0.0005417441644975902
17 -0.00028402220112505643 -0.002754369382985426 0.0017886260081689939
817 -0.0019034213200906532 0.0017839269472548016 0.0010846293296667418
733 -0.0026877771059577215 0.0001364508140460019 0.0021918631409305806
756 0.002307228197447631 0.007333034724609013 -0.0019778127157357994
228 0.0008800688237274368 -0.0025959539345137323 -0.0006350481947703637
433 -0.0038034724992335443 0.0014910431477049057 -0.003600790249042534
191 0.002508052929597856 0.0013714358339420164 0.0002204362208385038
801 0.00148788382631478 -0.001418597395122437 -0.0009646706486251683
878 0.002835902053051138 -0.0041082703021326815 -0.0022063661342814588
641 -0.005235074593768231 -0.0036001424648747834 0.002495484836175422
944 3.2278915775122996e-05 -0.003061188803948604 0.003201155086968467
45 0.0028524613627159755 -0.0012782855345264833 -0.0034408741584810187
320 -0.002721280814635167 0.0013113779203046772 -0.0037707062099695157
767 7.550297715739757e-05 0.0006708426164866806 0.0012126336338485302
953 0.0005989159569731843 0.00018147968527710987 -0.001576312219216643
340 0.0009584607702524283 -0.0016426276813007905 0.0003238014334619219
84 0.002188805246481718 0.0015109668813617994 0.00011608144165071165
847 -0.0033739148370394724 -0.0016695535781350663 0.0019735593012341953
695 0.00033646883076919273 -0.0014168401893569513 0.0003002182909890653
917 -7.770488501803504e-05 -0.0031969972633581058 0.0005637155829145891
609 0.0033896486667253267 -0.0007139004344595664 -0.0035355658434550073
913 -0.0017785908334103447 0.0019443759057221695 0.0009166107293891671
328 -0.0023523294985347246 0.001516607702853035 -0.0014792664385687262
832 0.0021352575215210974 -0.0022697332970767754 0.0012420240303446918
646 0.002790439140728361 -0.00029086813898153907 4.460305453127841e-05
266 0.0005041815931581515 -0.00043855070596748093 0.006784913980071452
717 -0.0002302070602906785 -0.003959571211548734 -6.7869998177156396e-06
63 0.0008763837122527622 0.000813489963464265 -0.002402807267194913
700 0.0005143487122138879 -0.001015792155271134 0.0020935994661201067
294 -0.003865674937995366 0.0015501474356763038 0.001592380484734562
173 -0.0012601468529181543 0.0012539276459072033 -0.0035471177750823362
539 0.001074922934694632 -0.0004664344459347341 0.002965502657016884
823 -0.00497514258999323 0.0006185068770561642 -0.0017888053105931782
707 0.0005882287735356673 -0.0040996690610625415 -0.003110488153956889
39 -0.0009576494441170319 0.0048453460636459725 -0.0015968955138349176
74 0.0033274788045765543 0.0023190075965342748 0.0005405362722965185
658 -0.00011042287459521956 -0.001886887635039035 0.0008306470421845712
967 0.000664706047851987 -0.00012950629684672734 -0.0011281582637639109
373 0.00021375483822008788 0.00041487203038423776 -0.0010242997015584305
476 -0.0008765194855013851 0.004798805322840163 -0.003367726089244768
139 0.0002942850165964119 0.0007578230597609404 0.0006176271718067662
404 0.0011332411115044098 -0.00014566337946511648 0.0016853758870952855
517 0.00012565455720062136 0.0015289731439702807 -0.0046126968715725185
246 0.0021344758127485723 0.0014004074920194321 -0.0015854348013562348
762 0.004047838125324515 -0.003207146947261019 0.0028446391032078636
189 0.0010968923447643973 -4.682353422920235e-05 0.004456082166426252
144 -0.002257471285735355 0.0034029038218164704 0.0033996891176499714
32 0.003098387708302863 -0.00034035352465859733 0.0019865305897217773
560 -0.0007174047144531767 0.00010825112630122977 -0.00023584047940084817
656 0.0031432549566051803 2.4513095013848088e-05 0.002450046423156008
46 -0.0017961739396518443 -0.003592024667040109 0.0010007185770193536
10 0.0025760306984710843 -0.0016643094114123104 0.0033042410970289485
564 -0.00032347824391213635 -0.0013182023764081738 0.0015260511354360006
247 -0.00011105579471777164 0.0017519402764628047 -0.0009235286145177525
425 -0.0008049195367285638 -0.001968972177225201 -0.003974665095843271
105 -0.00017943210565516519 -0.0011812571159113903 -0.00047136968910789094
295 -0.0013897931376720075 0.0009249974712015199 -0.0011149315192589605
416 0.003035410702861344 -0.0008622288323149494 -0.004511578935711377
274 0.0014425322406514515 0.004087489745199678 0.00236392209126478
54 6.278415918912916e-05 -0.0026316542250042433 0.001765735463497691
705 0.0011211352568030906 -0.00020999985457445872 -0.0015601397417636408
829 0.0010771888670599345 -0.001539351418870699 -0.0015975574197693312
443 -0.006478601972980069 0.0016027020167026045 0.0003820698429971829
345 0.0023938093186374344 -7.309051680615961e-05 0.0002632461570534996
580 -0.0017979237183688738 0.00029386045610875434 -0.002821405504704843
804 -0.0024394083365830363 -0.0003744480194719721 -0.0014817749405097195
467 0.0007844730204205167 0.004241072596355102 -0.0018143173626815519
106 -0.002460966173593578 0.00030395796910856894 -0.0031518897248142036
876 0.0023157269723487867 -0.003492039270890531 0.0026645616825998145
827 -0.0019342821477545719 0.0041851819997556034 -0.0015165114933977269
428 0.0007165347840315387 0.00381387817744389 0.0011867369306227558
254 -0.0018755826528258292 0.002740016201390136 0.000141462576907801
52 -0.0014016342888072538 0.0007013706522058282 0.0005665711242368083
723 0.0022933648908829967 -0.0021020562479048335 -0.0027865608904362694
997 -0.0013689426567433621 -0.0008770944398756529 -0.0005104545523459787
833 0.0025764641567249543 0.0006655461957213852 0.00013260731208488915
996 0.0013471696058254819 0.0011447119347381622 -0.00194065102013983
526 0.0010463365129492017 -0.00016796031128510984 -0.0017689482261661821
896 -0.0036992647591211148 0.0005509570578896934 2.8321118083158352e-05
960 0.00019459740714126603 -0.0010191357549485572 -0.00028914196767080354
382 0.006593543542626949 -8.903333321277706e-05 -0.0004383411091261145
182 -0.000820100596409327 0.003995263983138867 0.00020582154360439204
194 0.0020293289000931584 -0.002480902211410413 0.001548159063002693
632 -0.00026423962783751596 -0.00046855478844761247 0.0007184198043718833
465 0.0037451846362584348 -0.0016274109624903762 0.0009402880124010408
579 -0.00039422781285825085 -0.005594887327880496 -0.0016394296788115016
277 -0.0022951937163754694 -0.0005919725333676032 9.17790407693951e-05
118 0.0014167406620858595 0.0003542466561445749 -0.0028271834178131214
495 0.0031471593160719838 0.0014111267697085074 -0.0005866064766046243
11 0.0008293628546132321 0.0002646855709755342 0.0023631006104001553
297 -0.0016162820754318668 -0.0025063612606839665 0.0015097251557439487
124 0.001694565511560639 0.0006857895511349455 0.0014720394940563276
233 -0.002174434334999613 0.001799893619189752 0.004697124492806687
546 0.00316565454881413 0.00060241998816857 0.0010092097356186368
213 0.0006080515579164089 0.0004753601218034641 0.0018813455203464744
863 0.0002524088432890936 -0.00012046661868999998 -0.0007928551946885707
337 -0.0009333760868698203 0.004365035901437357 0.0020552331295905463
738 -0.003567546257252841 -0.0003383071537662865 0.003043397030802315
141 -0.0002970285088877882 -0.006580622969930993 0.00028648222424233245
894 -0.0018878817570855038 -0.0008865724883110295 -0.0032754823630073366
732 0.0006966702860538354 0.0049051491053112035 0.0003283172367906189
329 -0.0011625252904682028 -0.0030051010727540402 -0.0011438965471274635
567 -0.0018245413960916038 -0.0014766443208953076 -0.000976602614116702
451 0.002958834800235609 0.00111189928336874 0.0019016030207376793
409 -0.0026351227132896736 0.0015384829934715393 0.0007745604340744191
975 0.003222008473054791 -0.0016447522077832463 0.00024985023476430514
489 0.0011143981092694617 -0.0003865281306867476 0.0003220771191023973
30 0.0028304994369464996 0.00019153808985146272 -0.0026423445039939677
23 0.00018609588228713923 0.00040578490393429267 -0.00044810345840585894
50 0.0019492973665241253 0.0005045052575045882 0.0002901167169096215
965 0.0031758582405618783 0.00064988694628287 0.00015507947170801995
344 -0.0015495103902810703 0.0011898898301313822 -0.0007239940054155316
305 -0.0014486125851246364 0.001364576988216272 0.002182629879991815
480 0.00036306294234091064 -0.002214196803781364 -0.0033248665702968585
158 0.002732683929790048 0.0010418816436299375 -0.0008471411562339653
353 0.0016916139088689586 -0.00016269197477455325 -0.0010181359057868542
683 0.0020348325163053577 0.0008565034359803026 0.003231958402384957
468 -0.0006149295367712743 -0.0010099640152828031 0.002151518745069696
497 -0.0013506405277883419 -0.0013319646350298355 -0.0012893510233917384
244 0.0010448447501249195 -0.002377128829664463 7.836684389106766e-05
346 0.004841715477120077 -0.0013330596981255569 -0.0012257950914526462
198 -0.00035786529662994323 0.0007039689498812664 0.0012884865989888617
535 0.0045998482197755755 -0.0002677490960509438 0.0006223937003906981
859 0.0005994883266512026 0.001517700348398687 0.003144332062790559
544 -0.0017584037872913068 0.001515175364006969 0.003267316152343017
255 -0.0003705079395685918 -0.00024192164958496614 -0.0020237540164231792
712 -0.0010100552931589554 0.0013889431557241824 0.0007985055896243381
898 -0.0005612234516227954 0.004131058758292756 0.002882073974297763
757 0.001518458286009527 -0.002508301972101258 0.0006473559906453009
510 0.005344474832819305 0.0004392099387867161 0.00135585108663057
40 -0.002966918286128442 -0.000697095770939985 -0.0002954270614427351
109 0.0016163376671318504 -0.0016539439133004504 -0.0023003411263315928
750 -0.0026990716743010607 0.0010742695847813077 0.00043486891166263453
682 -0.0003195541185114623 0.002334916911826877 0.0009265873759851534
575 -0.002794220035117553 0.0013250882999019664 -0.0005578732027080759
741 -0.0024100766219483823 0.0018458702293474023 -0.0012994577383489945
441 0.0013858961252669886 0.002308862068654474 0.0013588956585257703
724 -0.0009996989841526886 -0.0006824141268962014 0.0013196061239686232
413 -0.0034636990761404015 0.0016026216423594487 0.0010629456853510852
671 -0.0008793776488406935 0.0006529236064449509 0.0020715075307928773
202 -0.00010469932465598547 0.0015573695251093862 0.002044835829192776
474 0.0008506502258954119 -0.00023602944882137485 0.001676773430108546
883 -0.0015884007790783548 -0.000326237554027382 -0.0009595606497725778
110 -0.0013090961577039502 0.0019458290731356107 -0.005614551185560738
991 -0.0043139167259100605 0.005281777870497628 -0.0029746172692228096
709 -0.0010684264102614183 0.004566637805911075 0.001226813431515842
370 0.00080504280888227 -0.0012758335743075077 -0.0006884732084285477
129 -0.0007786449312973401 0.003535284113120359 0.001096638671633696
111 -0.002476823740365763 -0.0024674129208422995 -0.0011755332012197178
826 -0.0029344663813758885 -0.00021569288183841733 0.001533857246435561
25 0.0005083758793323002 0.001331734212605005 -0.0009910249757472435
1000 -0.0015739231429338914 -0.001577597818077988 0.001694970153374311
415 -0.006446363746277816 0.003430273831009271 0.00037573236588352263
679 0.000887879243854435 0.0026037721685959843 -0.004330863659124312
142 0.0013135745028949326 0.0019085114733887448 -0.0007773978997108645
765 0.0022547101705299465 -0.0010637053486752543 -0.0011535391522516536
330 0.0017901484302421937 -0.002303286505522926 9.070010280350797e-05
125 0.002693358283939187 0.00021380638328785017 -0.0031289135993290604
350 0.003640027121067601 -0.004240411546050649 0.0028296836680191274
260 0.0012412445407606629 -6.178788895056684e-05 -0.003258473135073146
928 -0.0027537418895320605 -0.0019479270368716855 0.003736891214555393
595 -0.002023831159103282 -0.0018017197289617334 0.003672131683559367
102 -0.00019201783531896482 0.0003028918454441146 -0.0005924928555235699
628 0.0008421396331738503 0.00021035534859316027 -0.0025027371953374564
600 -0.0012443345554481685 -0.0011437440476980817 0.00011893937318053143
286 0.0023253609106255128 0.0026355792020231637 -0.0033294069685038635
506 0.0008273919344138329 0.0028293071892967732 -0.0003272422639952352
200 0.0004545735953077631 -0.000607976441494245 0.00016702998629929605
321 0.0010028560915796864 -0.00034722480756205605 0.000652230840678776
635 -0.0006465798236437952 4.44389575242297e-05 -0.0014874546622975797
678 -0.0034068401684659265 -0.0025588083191039417 -0.004801747321375351
855 -0.0009774140568548347 -0.0028409801026664724 0.0008432652869289532
523 0.00017524168586421755 -0.000702888881531814 -0.0026498971241322965
411 -0.0013518783700915524 -0.0004752894104833011 -0.0017231627697861251
727 0.0038719410672920346 -0.002518364196099026 0.0016236955854234268
763 -0.00134485903456633 -0.0011975059535168303 -0.0006574055565588296
214 -0.0030319121707019195 5.433351845995021e-05 -0.0014081703876450392
343 0.006107694771205547 -0.00166947602362627 0.0014585003019247326
543 -0.00016727950890451588 -0.002767781764291063 0.0038725011953667106
838 -0.0008418793473674535 0.0009662702150253802 0.00032474297448146665
660 -0.002399676734932242 0.0006331163634698347 0.001228703668899177
302 0.0001592364942275748 0.0009855212037870782 -0.0007179209519953061
729 -0.000859234519953399 -0.003271874119433942 -0.0033662091827090343
882 0.0006211364303138324 -0.0020694201880301255 -0.00021505669522563616
739 -0.008026755911830804 -0.0006805229267360458 -0.0009552733805965974
281 -0.0006349914776978372 -0.00231337191505319 0.005093013851664327
249 -0.0007520884675164132 -0.002107216263363382 -0.002205648361122406
527 0.003087938153311356 -0.0026148377754276835 0.0019450737603649367
731 0.00029773745754230267 -0.004271668454693361 0.0011872864440765295
672 -0.0008641732350289385 -0.0008176495067484196 0.0020735644181243316
70 -0.001763480820550472 0.000800556917708659 0.0005682989811116704
151 3.205866534382567e-05 0.0049373709055171985 -0.00046918278401417623
634 0.0007937538689077841 -0.00018798447248444174 -8.638276348790986e-06
312 0.004877523957441112 -0.003621512190139319 -0.0019623966224940077
333 0.0016932294852416206 0.0017710016442116176 -0.0012273486346298808
369 0.0034986602020842315 0.003422145524084413 0.00033934003464655845
803 0.0025066515845624535 0.0008826696076243681 0.0013532967447697538
747 -0.0003960606745707147 0.001291449517974298 0.0015487710850673002
131 0.0026634162263949207 0.00377719179093458 0.0007811815496690407
472 0.0021637409199327167 0.00182014068431162 -0.0027670789235619314
651 -0.0037441766959315716 -0.0034790355491736424 0.0001377286124903966
890 -0.001754546105983771 0.002769391862107096 -0.003194752988199502
83 -0.0008616225639546645 -0.00019438741144025436 -0.0005040075461999618
315 0.0006297427859556075 0.001169543991463557 0.002227237347849389
31 0.0016806386742375184 0.002412579089502787 -0.0002906326024202386
642 -0.001681448181178468 -0.001986504192581805 -0.002367933171038333
180 -0.0026274668896164276 0.002248990299315063 -0.005004194271779402
576 -0.0010452898613589159 0.0006213685802349378 0.0007533610512341399
990 -0.0029901916335412946 -0.0016318835936537802 -0.0004281608128273968
493 0.0039085528032281975 0.0010636409503288365 0.0030823610110982625
820 0.003292592738367547 -0.0016994424614344614 0.0024505031532804948
630 0.0021750726496464934 -0.0006978059774828527 -0.00022816925347295944
289 -0.0015781072309166548 0.0024251599331296557 0.0026911953852703603
971 -0.0004935227052763285 -0.0038845700894287283 0.0010486691124852018
501 -0.0008541867505702727 -0.0017135524138725798 0.0031682215699888544
322 -0.0013553337440664955 0.0032380205399085114 -0.0005174616583361824
470 0.0005215987330506255 -0.0012484016961456736 -0.0008936768207888484
900 -0.0018734622202789956 0.002274832779792947 0.0021440726509311253
354 -0.0007594552596913453 -2.0855561880225167e-05 0.0010893965196240492
348 0.003177543255099269 0.00031625399832173535 0.0024688915436463983
503 -0.0021044337941241243 -0.0007573895185940499 -0.00018371667333856467
809 -0.0013019310207058987 0.006122015882948232 0.0005501061584574499
460 -0.0006538834061149729 -8.916535105481754e-05 0.0008790795890147052
649 0.0012506094870519586 0.000249601900804028 0.0029220444400561694
992 0.00046202982728594193 -0.0028905235067502233 -0.0005662031115844453
58 -0.0014601308459799383 0.002012234430502293 0.0008833855175968609
206 -0.002211231728889675 0.0023212768322351265 0.0009931503861463503
982 0.002234587361399571 -0.0009801785036294647 -0.0019187460833313354
147 -0.0027670790287697123 -0.00019907961675924514 0.004737776437733929
115 0.000988414351128765 -0.003156136642820056 0.0036019553314625935
538 -0.004510552453848505 -0.0012294754777049067 -0.002271725351824854
363 -0.00329998983809299 0.0013632815876432362 0.0028457837415019963
880 0.0008140063359036871 0.0008693417520575011 -0.004466905619747092
338 -0.0009096874029568247 -0.0005879616947424215 -0.0014535911796991511
86 0.0030269167462687015 -0.0009888767204143528 9.160415675372374e-05
438 -0.0012368780900635183 0.0001954508837078289 0.00033187325425090126
420 -0.002577873092611861 0.002491695627649855 0.0017710722083630122
676 0.0008700727590206319 -0.004317109342941922 0.0004682903350534744
452 -0.00011964475236879569 0.0007657365126677078 -0.0032490567518129346
288 0.0007451039303578833 0.0036951838032321053 7.384136584057962e-05
193 -0.004165406458259709 0.003495029199481053 -0.005740824220038484
645 0.0009484910042389332 -0.004301867144411401 0.0040082087385262324
323 0.002459920376862435 5.621039451702547e-06 -0.0013903342727058052
636 0.0008686754953744 -0.0016881933221817563 -0.0014190520156726878
148 -0.0031741849719212666 0.0017444062799990368 -0.0016236483081596166
940 0.0011981285859754302 -0.00018503188927808238 0.0018455538806865768
324 0.0009812001283538354 0.0016810514984209395 -0.0028237553147084696
258 0.0031988886369385366 -0.0003072499633892137 0.00022853723954351841
927 -0.0013240550687762035 -0.00017021371697608953 0.0029514568288320883
783 -0.0005038405237289459 0.004190994880155758 -0.00374600205535829
606 -0.0014161678826654389 0.003436242867869498 -0.003490040078617125
622 -0.0007088547489069825 -0.0020487954546129063 -0.00022123848775179722
356 -0.0008910729291791989 0.00413753102911139 -0.0010195485520794734
524 -0.0015242099620628262 0.0032042953294010683 -0.0039221070461530365
3 -2.459827398104157e-05 -0.0024605198968877945 -0.0022217334078805475
507 0.0016709297304383544 0.0023196415705696257 0.003424033145274555
813 -0.003184136123392825 -0.0016584245000355346 0.001089782372891203
556 -0.003334398696861762 -9.52300533561805e-05 -0.0015225077093786964
504 0.003740172577329925 -0.003362803938554819 0.0001609482034722606
9 0.0013944815579564852 0.0007373840795073983 -0.006220851218385274
942 -0.003341375093476854 0.00022308530327382783 -0.0023980922029818116
179 -0.004950178180459065 0.00018800930896178524 -0.0010446084111205415
82 9.250724319761062e-05 -0.0005627747834046398 0.00261081274087559
16 0.0024657618808343264 -0.0035168443128616865 -0.0020123741695650954
545 0.0017904287209476242 -0.00029718310454654163 -0.0007104535288454813
412 -0.00397944915675681 0.0011792521571122778 -0.0053227321790406705
335 -0.0026866641034417513 0.0038136387504017085 -0.0025865908951263248
299 -0.0002804888989135565 -0.0025210284797239093 -0.001391855400805508
95 -0.00011479864819633204 -0.0025277195193184553 -0.004881988756969034
133 0.0015568754871051699 0.003079045396153385 -0.0026061242831502463
743 -0.002468993314191184 -0.0030560358363118986 -0.0005333949606979203
311 -0.003175748578659727 -0.0054074886401218455 -0.0015823850867326477
511 -0.0005120282629951633 0.00011076348469005595 0.0010243907387723701
533 -0.0021535214953734083 0.003856479891080165 0.0011350845094943106
725 0.00039235041545835427 -0.0014868050247900282 -0.00261863038443077
559 0.0019576612630412657 -0.0006967570755290737 -0.0038830148179283008
932 -0.00021835663136250157 0.0018466039257296583 -0.002198852961011518
89 -0.0003721118545948238 -0.0009666740891398134 0.0003396301207328149
178 -0.003678945934550861 0.004528496885727553 0.004335940017010027
573 0.004110686766867989 0.0008578822863583121 0.0011681157769601403
737 -0.0009711627078863418 -0.004144160945953606 -0.001621126483469222
643 0.001436038315799378 0.003930321014232767 0.0006754614082435929
406 -0.004500573970374119 0.0014300596715934723 -0.00203809073309286
745 0.004569444814601438 0.0030733958833427566 -0.002842217035460931
169 3.606292271842924e-05 -0.000534239554360885 -0.0011346478842174633
97 -0.0007960570823573565 0.0004140701891735351 0.0014932398869214082
284 0.00028267331821956034 -0.0015368711075339266 -0.0014028141704587561
943 0.0024327144813502 -0.00095734373124159 -0.0026404762462871874
152 -0.0013640809523160662 0.002069597400800457 0.0011144432299754837
92 0.00017678562669398354 -0.0005740896127873604 -0.002473260007390275
176 0.0018952369988338637 -0.0008025481825372502 0.0002721256511748694
487 -0.002146381073685908 -0.00231935972058033 -0.001346299463334383
211 0.003542045651424903 0.00493050825597921 -0.0017807261729240974
402 0.005485524721989447 0.0017084490578776162 -0.0002746915718465516
268 0.00012596313243965314 -0.00018428405874320244 0.0017486563624672078
754 0.0009001003488825736 -0.00012087441469807503 0.004162826363513739
298 -0.002438306205342363 -0.00038961605719712124 -0.0008449620730247195
73 -0.0005526729302666288 0.0025947394802548584 0.0025307097248215456
13 -0.0007072557869383584 -0.0027675934949817115 0.00036425148917159045
352 0.002697081221360512 0.0009704670170110216 0.0002004477731841807
644 -0.001443679165333223 0.004595480294632135 0.002798809141926913
598 -0.0032676865756431353 0.003623111488125456 0.005236194448940186
703 -0.0013561964717815698 -0.0021925997957068016 0.0022042111613043884
34 0.0011840053085009558 -0.0025137899229325427 -0.0007311747606296431
75 0.0001993984631955585 -0.0007177258619638527 -0.0006864148565210563
380 0.00025884277317546735 -0.0018250847420339504 -9.596893789807207e-05
196 -0.0012608963534396804 0.0015135028921662566 -0.001995642927950947
456 0.0002463060253810192 -0.003120561323305916 -0.003056171122957956
184 0.00019106406908143473 0.0021190720910543364 0.0030802822526790783
537 0.0008397163734154343 -0.0007967775996232572 -0.0012239166699487465
919 0.00022266002288194277 -0.0006810900007082867 -0.005193548476345069
360 8.432260769466716e-06 -0.0009043760028491377 -0.0010363050957126181
68 0.0031232942156031824 -0.003611104470693171 -0.00043161527087307326
128 -0.0008974803943036132 -0.003120203154383198 0.0004961269880312817
377 0.001387018159462307 0.0027856712129963102 -0.0019025293601684392
447 0.005580715340885081 -0.0012117594832815957 -0.0024795082471327236
155 -0.0006742997275374096 0.0005997683323755457 0.0020686099608182656
638 -0.0009233385858141484 -0.0008233748911800121 -0.0009353216833964102
27 -0.0012381536475959177 -0.0015004109897234239 -0.00021955909197255149
218 -0.002741199299199426 0.0011988719461228225 -0.004271804231233735
794 0.002355959412883026 0.000829823236894016 -0.0016656607171999299
977 -0.002572973743266023 0.0032638289654284467 -0.0013053854883406043
581 -0.003085983968594226 -0.0011005313657161105 -0.0013493476109335243
734 0.0038850563129319915 -0.0027631429255883886 0.002365238217789762
879 0.0040296260222962565 0.0005184972444422538 -0.0021100904243157217
